! TOUCHSTONE file generated by CST MICROWAVE STUDIO
! Date and time: Fri Jul 24 20:40:52 2026
! Project name: param-sim.cst
! Parameters = {amp_ratio=0.2; bg_space=15.3582; body_ext=25; body_gap=1; body_x=41.8339; body_y=41.8339; chan_r=0.25; eps_r=2.6; fat_t=5; feed_gap=1; fillet_r=0.25; musc_t=70; outer_r=10.74; pad_h=4; pad_sep=8; pad_x=14; pin_r=0.65; pin_zb=0.2; pin_zt=1.5; serp_A=1.79; serp_R=8.95; serp_n=12; serp_ratio=0.05; sh_ri=1.5; sh_ro=2; skin_t=2; sub_h=1.94796; sub_x=16.8339; sub_y=16.8339; tand=0.03; well_r=0.9; z_ft_bot=-8.97398; z_ms_bot=-78.974; z_sk_bot=-3.97398; z_sk_top=-1.97398}
! Header version: 2024
! Port assignment regex: !\s*Touchstone port\s*([0-9]+)\s*=\s*(CST MWS port|CST DES external port|CST DES block port)\s*(.+)\s* \(\"(.*)\"\)(\s*mode\s*([0-9]+))?.*
! Touchstone port assignment:
! Touchstone port 1 = CST MWS port 1 ("")
! Touchstone port 2 = CST MWS port 2 ("")
# GHz S RI R 50
1.8                  0.292907241    -0.660463382      0.400889875     0.074062616      0.400888673     0.074061987      0.291977924    -0.660612879
1.8014               0.291025311    -0.659856905      0.401720379    0.0735174153      0.401719159    0.0735167887      0.290093348    -0.660003345
1.8028                 0.2891455    -0.659239298      0.402551272    0.0729680598      0.402550033    0.0729674357      0.288210914    -0.659382665
1.8042               0.287267898    -0.658610553      0.403382533    0.0724145319      0.403381275    0.0724139104      0.286330713    -0.658750833
1.8056               0.285392595    -0.657970666      0.404214142    0.0718568139      0.404212865    0.0718561952      0.284452835    -0.658107842
1.807                0.283519684    -0.657319631       0.40504608    0.0712948881      0.405044784    0.0712942724      0.282577373    -0.657453689
1.8084               0.281649256    -0.656657445      0.405878325    0.0707287372      0.405877011    0.0707281246      0.280704418     -0.65678837
1.8098               0.279781402    -0.655984105      0.406710858    0.0701583436      0.406709525    0.0701577341      0.278834062    -0.656111883
1.8112               0.277916215    -0.655299609      0.407543657    0.0695836898      0.407542306    0.0695830837      0.276966397    -0.655424225
1.8126               0.276053787    -0.654603956      0.408376702    0.0690047585      0.408375333     0.069004156      0.275101516    -0.654725397
1.814                0.274194211    -0.653897147      0.409209971    0.0684215324      0.409208584    0.0684209335      0.273239511    -0.654015399
1.8154               0.272337579    -0.653179181      0.410043444    0.0678339942      0.410042038    0.0678333991      0.271380476    -0.653294231
1.8168               0.270483986    -0.652450061      0.410877097    0.0672421268      0.410875674    0.0672415355      0.269524503    -0.652561895
1.8182               0.268633523     -0.65170979       0.41171091    0.0666459129      0.411709469    0.0666453257      0.267671687    -0.651818396
1.8196               0.266786286    -0.650958371       0.41254486    0.0660453356      0.412543401    0.0660447526      0.265822121    -0.651063736
1.821                0.264942366    -0.650195809      0.413378925    0.0654403778      0.413377448    0.0654397992      0.263975899    -0.650297921
1.8224               0.263101859     -0.64942211      0.414213082    0.0648310227      0.414211588    0.0648304485      0.262133114    -0.649520956
1.8238               0.261264859     -0.64863728      0.415047309    0.0642172534      0.415045798    0.0642166838      0.260293861    -0.648732849
1.8252                0.25943146    -0.647841326      0.415881582    0.0635990531      0.415880054    0.0635984883      0.258458235    -0.647933607
1.8266               0.257601756    -0.647034258      0.416715879    0.0629764052      0.416714333    0.0629758452       0.25662633     -0.64712324
1.828                0.255775841    -0.646216085      0.417550175     0.062349293      0.417548612    0.0623487381      0.254798241    -0.646301756
1.8294               0.253953812    -0.645386818      0.418384447    0.0617177001      0.418382867    0.0617171503      0.252974062    -0.645469168
1.8308               0.252135761    -0.644546467      0.419218671      0.06108161      0.419217074    0.0610810655      0.251153888    -0.644625486
1.8322               0.250321786    -0.643695046      0.420052823    0.0604410063      0.420051209    0.0604404673      0.249337815    -0.643770723
1.8336               0.248511979    -0.642832568      0.420886878    0.0597958729      0.420885248    0.0597953394      0.247525937    -0.642904894
1.835                0.246706437    -0.641959047      0.421720812    0.0591461936      0.421719165    0.0591456658       0.24571835    -0.642028013
1.8364               0.244905255      -0.6410745      0.422554599    0.0584919524      0.422552936    0.0584914303      0.243915149    -0.641140096
1.8378               0.243108527    -0.640178942      0.423388216    0.0578331332      0.423386536    0.0578326171       0.24211643    -0.640241159
1.8392                0.24131635    -0.639272391      0.424221635    0.0571697203       0.42421994    0.0571692103      0.240322286    -0.639331222
1.8406               0.239528819    -0.638354866      0.425054832    0.0565016979      0.425053121    0.0565011941      0.238532815    -0.638410301
1.842                0.237746028    -0.637426387      0.425887781    0.0558290504      0.425886054    0.0558285529      0.236748111    -0.637478419
1.8434               0.235968073    -0.636486974      0.426720456    0.0551517622      0.426718713    0.0551512712      0.234968269    -0.636535594
1.8448                0.23419505    -0.635536648       0.42755283     0.054469818      0.427551071    0.0544693336      0.233193386     -0.63558185
1.8462               0.232427053    -0.634575433      0.428384877    0.0537832025      0.428383103    0.0537827249      0.231423555    -0.634617209
1.8476               0.230664178    -0.633603352      0.429216569    0.0530919006       0.42921478    0.0530914298      0.229658874    -0.633641695
1.849                0.228906521     -0.63262043      0.430047881    0.0523958971      0.430046077    0.0523954333      0.227899436    -0.632655334
1.8504               0.227154176    -0.631626692      0.430878785    0.0516951772      0.430876965    0.0516947205      0.226145337    -0.631658151
1.8518               0.225407238    -0.630622166      0.431709253    0.0509897261      0.431707418    0.0509892766      0.224396672    -0.630650174
1.8532               0.223665803     -0.62960688      0.432539257    0.0502795291      0.432537408    0.0502790869      0.222653537    -0.629631431
1.8546               0.221929964    -0.628580862      0.433368769    0.0495645718      0.433366906    0.0495641371      0.220916025    -0.628601951
1.856                0.220199818    -0.627544142      0.434197762    0.0488448397      0.434195884    0.0488444126      0.219184232    -0.627561764
1.8574               0.218475458    -0.626496751      0.435026207    0.0481203186      0.435024314    0.0481198992      0.217458252    -0.626510901
1.8588                0.21675698    -0.625438722      0.435854074    0.0473909945      0.435852168    0.0473905829       0.21573818    -0.625449395
1.8602               0.215044477    -0.624370088      0.436681336    0.0466568534      0.436679415    0.0466564497       0.21402411     -0.62437728
1.8616               0.213338043    -0.623290882      0.437507962    0.0459178814      0.437506028    0.0459174858      0.212316137    -0.623294589
1.863                0.211637772    -0.622201139      0.438333924     0.045174065      0.438331976    0.0451736776      0.210614353    -0.622201359
1.8644               0.209943759    -0.621100897      0.439159192    0.0444253907       0.43915723    0.0444250116      0.208918853    -0.621097625
1.8658               0.208256097    -0.619990192      0.439983735    0.0436718451       0.43998176    0.0436714745      0.207229731    -0.619983425
1.8672               0.206574878    -0.618869063      0.440807524    0.0429134151      0.440805536     0.042913053       0.20554708    -0.618858799
1.8686               0.204900197    -0.617737548      0.441630529    0.0421500878      0.441628527    0.0421497343      0.203870992    -0.617723785
1.87                 0.203232146    -0.616595689      0.442452718    0.0413818502      0.442450703    0.0413815055      0.202201561    -0.616578424
1.8714               0.201570817    -0.615443527      0.443274061    0.0406086897      0.443272033    0.0406083539      0.200538878    -0.615422758
1.8728               0.199916302    -0.614281104      0.444094526     0.039830594      0.444092486    0.0398302671      0.198883037     -0.61425683
1.8742               0.198268695    -0.613108463      0.444914083    0.0390475506      0.444912031    0.0390472328      0.197234129    -0.613080683
1.8756               0.196628085     -0.61192565      0.445732699    0.0382595474      0.445730635    0.0382592388      0.195592246    -0.611894363
1.877                0.194994565     -0.61073271      0.446550344    0.0374665726      0.446548267    0.0374662733      0.193957478    -0.610697915
1.8784               0.193368226     -0.60952969      0.447366984    0.0366686144      0.447364896    0.0366683245      0.192329918    -0.609491386
1.8798               0.191749158    -0.608316636      0.448182588    0.0358656613      0.448180488    0.0358653809      0.190709654    -0.608274824
1.8812               0.190137451    -0.607093599      0.448997123    0.0350577019      0.448995011    0.0350574311      0.189096779    -0.607048278
1.8826               0.188533195    -0.605860627      0.449810556    0.0342447251      0.449808433     0.034244464      0.187491381    -0.605811798
1.884                 0.18693648    -0.604617771      0.450622854    0.0334267199       0.45062072    0.0334264686      0.185893549    -0.604565435
1.8854               0.185347395    -0.603365083      0.451433985    0.0326036756      0.451431839    0.0326034342      0.184303373    -0.603309241
1.8868               0.183766028    -0.602102616      0.452243914    0.0317755817      0.452241757    0.0317753503      0.182720942    -0.602043269
1.8882               0.182192468    -0.600830423      0.453052607    0.0309424279       0.45305044    0.0309422066      0.181146342    -0.600767572
1.8896               0.180626802     -0.59954856      0.453860032     0.030104204      0.453857854    0.0301039929      0.179579663    -0.599482207
1.891                0.179069117    -0.598257081      0.454666153    0.0292609002      0.454663965    0.0292606994      0.178020991    -0.598187229
1.8924               0.177519501    -0.596956044      0.455470937    0.0284125069      0.455468739    0.0284123164      0.176470413    -0.596882695
1.8938               0.175978039    -0.595645506      0.456274348    0.0275590146       0.45627214    0.0275588345      0.174928014    -0.595568662
1.8952               0.174444818    -0.594325526      0.457076352     0.026700414      0.457074134    0.0267002446      0.173393881    -0.594245191
1.8966               0.172919922    -0.592996164      0.457876914    0.0258366964      0.457874687    0.0258365376        0.1718681     -0.59291234
1.898                0.171403436     -0.59165748      0.458675999    0.0249678529      0.458673761    0.0249677048      0.170350753    -0.591570171
1.8994               0.169895445    -0.590309536       0.45947357    0.0240938751      0.459471323    0.0240937378      0.168841926    -0.590218746
1.9008               0.168396032    -0.588952395      0.460269592    0.0232147547      0.460267337    0.0232146283      0.167341702    -0.588858128
1.9022               0.166905279     -0.58758612       0.46106403    0.0223304838      0.461061765    0.0223303683      0.165850164    -0.587488379
1.9036               0.165423271    -0.586210775      0.461856846    0.0214410545      0.461854573    0.0214409501      0.164367393    -0.586109566
1.905                0.163950087    -0.584826426      0.462648005    0.0205464595      0.462645724    0.0205463662      0.162893473    -0.584721753
1.9064                0.16248581     -0.58343314       0.46343747    0.0196466915       0.46343518    0.0196466094      0.161428483    -0.583325008
1.9078               0.161030521    -0.582030983      0.464225204    0.0187417436      0.464222906    0.0187416727      0.159972505    -0.581919398
1.9092               0.159584298    -0.580620025       0.46501117     0.017831609      0.465008864    0.0178315495      0.158525618     -0.58050499
1.9106               0.158147221    -0.579200333       0.46579533    0.0169162814      0.465793017    0.0169162333      0.157087902    -0.579081856
1.912                 0.15671937    -0.577771978      0.466577648    0.0159957546      0.466575327     0.015995718      0.155659434    -0.577650064
1.9134               0.155300821    -0.576335031      0.467358085    0.0150700227      0.467355757    0.0150699976      0.154240292    -0.576209686
1.9148               0.153891652    -0.574889563      0.468136604    0.0141390802      0.468134269    0.0141390667      0.152830555    -0.574760794
1.9162                0.15249194    -0.573435648      0.468913166    0.0132029217      0.468910824    0.0132029199      0.151430297    -0.573303462
1.9176               0.151101761    -0.571973359      0.469687734    0.0122615422      0.469685384    0.0122615522      0.150039595    -0.571837761
1.919                0.149721189     -0.57050277      0.470460267     0.011314937      0.470457912    0.0113149588      0.148658524    -0.570363769
1.9204               0.148350298    -0.569023956      0.471230729    0.0103631017      0.471228367    0.0103631354      0.147287157    -0.568881559
1.9218               0.146989164    -0.567536994       0.47199908    0.0094060322      0.471996711   0.00940607775      0.145925569    -0.567391208
1.9232               0.145637857    -0.566041961       0.47276528   0.00844372457      0.472762906    0.0084437821      0.144573831    -0.565892794
1.9246               0.144296451    -0.564538934       0.47352929   0.00747617535      0.473526911   0.00747624489      0.143232016    -0.564386394
1.926                0.142965017    -0.563027993      0.474291072   0.00650338131      0.474288687   0.00650346293      0.141900196    -0.562872087
1.9274               0.141643624    -0.561509215      0.475050585   0.00552533957      0.475048194    0.0055254333      0.140578439    -0.561349953
1.9288               0.140332343    -0.559982682      0.475807789   0.00454204753      0.475805393   0.00454215343      0.139266816    -0.559820072
1.9302               0.139031243    -0.558448475      0.476562644   0.00355350295      0.476560243   0.00355362106      0.137965395    -0.558282525
1.9316               0.137740391    -0.556906674       0.47731511   0.00255970388      0.477312704   0.00255983425      0.136674244    -0.556737394
1.933                0.136459855    -0.555357364      0.478065146   0.00156064872      0.478062736   0.00156079138      0.135393431    -0.555184762
1.9344               0.135189701    -0.553800626      0.478812712  0.000556336185      0.478810298   0.00055649118       0.13412302    -0.553624713
1.9358               0.133929995    -0.552236545      0.479557767  -0.00045323466      0.479555349 -0.000453067294      0.132863078     -0.55205733
1.9372                 0.1326808    -0.550665206      0.480300271  -0.00146806442      0.480297849  -0.00146788465      0.131613669    -0.550482698
1.9386               0.131442181    -0.549086694      0.481040181  -0.00248815336      0.481037755  -0.00248796115      0.130374856    -0.548900903
1.94                 0.130214201    -0.547501096      0.481777456  -0.00351350139      0.481775027  -0.00351329671      0.129146702    -0.547312032
1.9414                0.12899692    -0.545908497      0.482512056  -0.00454410808      0.482509624  -0.00454389091      0.127929268    -0.545716171
1.9428               0.127790402    -0.544308986      0.483243938  -0.00557997265      0.483241503  -0.00557974296      0.126722616    -0.544113408
1.9442               0.126594704    -0.542702651       0.48397306  -0.00662109396      0.483970622  -0.00662085172      0.125526805    -0.542503832
1.9456               0.125409887    -0.541089581      0.484699382  -0.00766747051      0.484696941  -0.00766721569      0.124341894    -0.540887531
1.947                0.124236008    -0.539469865      0.485422859  -0.00871910043      0.485420416  -0.00871883302      0.123167941    -0.539264595
1.9484               0.123073126    -0.537843593      0.486143451  -0.00977598149      0.486141006  -0.00977570148      0.122005003    -0.537635114
1.9498               0.121921295    -0.536210856      0.486861114   -0.0108381111      0.486858668   -0.0108378185      0.120853137     -0.53599918
1.9512               0.120780572    -0.534571745      0.487575807   -0.0119054863      0.487573359    -0.011905181      0.119712396    -0.534356883
1.9526               0.119651011    -0.532926353      0.488287486   -0.0129781037      0.488285036   -0.0129777858      0.118582836    -0.532708317
1.954                0.118532664    -0.531274772      0.488996109   -0.0140559596      0.488993658   -0.0140556291      0.117464509    -0.531053573
1.9554               0.117425585    -0.529617095      0.489701633     -0.01513905      0.489699181   -0.0151387067      0.116357468    -0.529392744
1.9568               0.116329825    -0.527953416      0.490404014   -0.0162273702      0.490401561   -0.0162270143      0.115261764    -0.527725926
1.9582               0.115245434    -0.526283828       0.49110321   -0.0173209154      0.491100756   -0.0173205468      0.114177447    -0.526053211
1.9596               0.114172462    -0.524608427      0.491799176   -0.0184196804      0.491796722   -0.0184192991      0.113104566    -0.524374695
1.961                0.113110957    -0.522927309       0.49249187   -0.0195236594      0.492489416   -0.0195232655      0.112043169    -0.522690474
1.9624               0.112060965    -0.521240567      0.493181248   -0.0206328464      0.493178794   -0.0206324398      0.110993303    -0.521000642
1.9638               0.111022534      -0.5195483      0.493867266    -0.021747235      0.493864812   -0.0217468157      0.109955015    -0.519305297
1.9652               0.109995709    -0.517850603       0.49454988   -0.0228668182      0.494547427   -0.0228663863      0.108928349    -0.517604535
1.9666               0.108980534    -0.516147574      0.495229047   -0.0239915887      0.495226594   -0.0239911442      0.107913349    -0.515898454
1.968                0.107977052     -0.51443931      0.495904723   -0.0251215389      0.495902271   -0.0251210818      0.106910059    -0.514187151
1.9694               0.106985304     -0.51272591      0.496576862   -0.0262566606      0.496574412   -0.0262561909       0.10591852    -0.512470724
1.9708               0.106005333    -0.511007472      0.497245422   -0.0273969454      0.497242973   -0.0273964631      0.104938772    -0.510749273
1.9722               0.105037179    -0.509284095      0.497910358   -0.0285423842       0.49790791   -0.0285418893      0.103970857    -0.509022895
1.9736               0.104080879    -0.507555878      0.498571625   -0.0296929677      0.498569179   -0.0296924603      0.103014812    -0.507291691
1.975                0.103136472     -0.50582292      0.499229179   -0.0308486861      0.499226735   -0.0308481662      0.102070675     -0.50555576
1.9764               0.102203995    -0.504085322      0.499882976   -0.0320095292      0.499880534   -0.0320089968      0.101138483    -0.503815202
1.9778               0.101283483    -0.502343185       0.50053297   -0.0331754863      0.500530531   -0.0331749414       0.10021827    -0.502070118
1.9792               0.100374971    -0.500596608      0.501179118   -0.0343465464      0.501176682    -0.034345989     0.0993100725    -0.500320607
1.9806              0.0994784929    -0.498845693      0.501821374   -0.0355226978      0.501818941    -0.035522128     0.0984139224    -0.498566773
1.982               0.0985940804    -0.497090541      0.502459694   -0.0367039287      0.502457264   -0.0367033466     0.0975298522    -0.496808715
1.9834              0.0977217651    -0.495331253      0.503094033   -0.0378902265      0.503091606   -0.0378896321      0.096657893    -0.495046536
1.9848              0.0968615772    -0.493567932      0.503724346   -0.0390815786      0.503721922   -0.0390809719     0.0957980749    -0.493280337
1.9862              0.0960135459     -0.49180068      0.504350588   -0.0402779715      0.504348168   -0.0402773526     0.0949504267     -0.49151022
1.9876              0.0951776992    -0.490029599      0.504972714   -0.0414793916      0.504970298   -0.0414787605     0.0941149763    -0.489736288
1.989               0.0943540641    -0.488254791      0.505590679   -0.0426858246      0.505588268   -0.0426851813     0.0932917503    -0.487958644
1.9904              0.0935426662     -0.48647636      0.506204438   -0.0438972559      0.506202031   -0.0438966005     0.0924807743    -0.486177391
1.9918              0.0927435304    -0.484694408      0.506813947   -0.0451136703      0.506811544   -0.0451130029     0.0916820729    -0.484392631
1.9932              0.0919566802    -0.482909038      0.507419159   -0.0463350524      0.507416761    -0.046334373     0.0908956694    -0.482604467
1.9946              0.0911821381    -0.481120355       0.50802003    -0.047561386      0.508017638   -0.0475606947     0.0901215861    -0.480813004
1.996               0.0904199255    -0.479328461      0.508616515   -0.0487926547      0.508614128   -0.0487919516     0.0893598441    -0.479018344
1.9974              0.0896700627    -0.477533459      0.509208569   -0.0500288416      0.509206187   -0.0500281267     0.0886104636    -0.477220591
1.9988              0.0889325688    -0.475735455      0.509796147   -0.0512699292      0.509793771   -0.0512692026     0.0878734633     -0.47541985
2.0002              0.0882074619    -0.473934552      0.510379203   -0.0525158996      0.510376833   -0.0525151614     0.0871488612    -0.473616223
2.0016              0.0874947589    -0.472130853      0.510957693   -0.0537667346      0.510955329   -0.0537659847      0.086436674    -0.471809816
2.003               0.0867944755    -0.470324462      0.511531571   -0.0550224151      0.511529213   -0.0550216538     0.0857369173    -0.470000731
2.0044              0.0861066266    -0.468515485      0.512100793   -0.0562829221      0.512098441   -0.0562821493     0.0850496055    -0.468189074
2.0058              0.0854312257    -0.466704025      0.512665313   -0.0575482356      0.512662968   -0.0575474514     0.0843747521    -0.466374948
2.0072              0.0847682853    -0.464890186      0.513225087   -0.0588183355      0.513222749     -0.05881754     0.0837123693    -0.464558458
2.0086              0.0841178167    -0.463074072      0.513780069    -0.060093201      0.513777739   -0.0600923943     0.0830624683    -0.462739707
2.01                0.0834798303    -0.461255788      0.514330216   -0.0613728109      0.514327893   -0.0613719931     0.0824250592      -0.4609188
2.0114              0.0828543352    -0.459435437      0.514875481   -0.0626571435      0.514873166   -0.0626563147     0.0818001508    -0.459095842
2.0128              0.0822413394    -0.457613125      0.515415821   -0.0639461766      0.515413513   -0.0639453369     0.0811877511    -0.457270936
2.0142              0.0816408499    -0.455788955       0.51595119   -0.0652398877      0.515948891   -0.0652390371     0.0805878669    -0.455444187
2.0156              0.0810528726    -0.453963032      0.516481545   -0.0665382535      0.516479253   -0.0665373922     0.0800005037    -0.453615698
2.017               0.0804774122    -0.452135459       0.51700684   -0.0678412505      0.517004556   -0.0678403785     0.0794256661    -0.451785574
2.0184              0.0799144725     -0.45030634      0.517527031   -0.0691488545      0.517524756    -0.069147972     0.0788633576    -0.449953919
2.0198              0.0793640558     -0.44847578      0.518042073    -0.070461041      0.518039807    -0.070460148     0.0783135806    -0.448120836
2.0212              0.0788261638    -0.446643881      0.518551923   -0.0717777849      0.518549666   -0.0717768815     0.0777763363    -0.446286429
2.0226              0.0783007969    -0.444810748      0.519056537   -0.0730990605      0.519054289   -0.0730981469      0.077251625    -0.444450802
2.024               0.0777879543    -0.442976485      0.519555869   -0.0744248419      0.519553631   -0.0744239182     0.0767394458    -0.442614059
2.0254              0.0772876343    -0.441141194      0.520049877   -0.0757551026      0.520047648   -0.0757541688     0.0762397967    -0.440776302
2.0268              0.0767998341    -0.439304978      0.520538516   -0.0770898154      0.520536297   -0.0770888717     0.0757526747    -0.438937635
2.0282              0.0763245498    -0.437467942      0.521021743   -0.0784289528      0.521019534   -0.0784279994     0.0752780758    -0.437098161
2.0296              0.0758617764    -0.435630186      0.521499514    -0.079772487      0.521497315   -0.0797715238     0.0748159947    -0.435257983
2.031               0.0754115079    -0.433791816      0.521971786   -0.0811203892      0.521969597   -0.0811194165     0.0743664253    -0.433417203
2.0324              0.0749737372    -0.431952931      0.522438516   -0.0824726306      0.522436337   -0.0824716485     0.0739293603    -0.431575923
2.0338              0.0745484562    -0.430113636       0.52289966   -0.0838291817      0.522897492   -0.0838281902     0.0735047914    -0.429734246
2.0352              0.0741356556    -0.428274031      0.523355175   -0.0851900125      0.523353018   -0.0851890118     0.0730927093    -0.427892274
2.0366              0.0737353254    -0.426434218      0.523805019   -0.0865550924      0.523802873   -0.0865540827     0.0726931035    -0.426050107
2.038               0.0733474541      -0.4245943      0.524249148   -0.0879243907      0.524247014    -0.087923372     0.0723059626    -0.424207849
2.0394              0.0729720297    -0.422754376      0.524687522   -0.0892978758      0.524685398   -0.0892968483     0.0719312743    -0.422365598
2.0408              0.0726090387    -0.420914548      0.525120096   -0.0906755158      0.525117984   -0.0906744797     0.0715690249    -0.420523458
2.0422              0.0722584668    -0.419074916       0.52554683   -0.0920572783      0.525544729   -0.0920562336        0.0712192    -0.418681527
2.0436              0.0719202988    -0.417235581       0.52596768   -0.0934431304      0.525965592   -0.0934420773     0.0708817842    -0.416839906
2.045               0.0715945182    -0.415396642      0.526382607   -0.0948330387       0.52638053   -0.0948319773      0.070556761    -0.414998695
2.0464              0.0712811079    -0.413558198      0.526791567   -0.0962269692      0.526789503   -0.0962258997     0.0702441128    -0.413157993
2.0478              0.0709800493     -0.41172035       0.52719452   -0.0976248877      0.527192468   -0.0976238102     0.0699438212    -0.411317899
2.0492              0.0706913234    -0.409883196      0.527591425   -0.0990267594      0.527589386    -0.099025674     0.0696558667    -0.409478513
2.0506              0.0704149097    -0.408046834      0.527982241    -0.100432549      0.527980214    -0.100431456      0.069380229    -0.407639932
2.052                0.070150787    -0.406211362      0.528366927     -0.10184222      0.528364913    -0.101841119     0.0691168865    -0.405802254
2.0534              0.0698989332    -0.404376878      0.528745443    -0.103255737      0.528743442    -0.103254629      0.068865817    -0.403965577
2.0548              0.0696593251    -0.402543479      0.529117749    -0.104673063      0.529115761    -0.104671948     0.0686269972    -0.402129999
2.0562              0.0694319386    -0.400711263      0.529483805     -0.10609416       0.52948183    -0.106093038     0.0684004028    -0.400295615
2.0576              0.0692167486    -0.398880324      0.529843571    -0.107518992       0.52984161    -0.107517863     0.0681860086    -0.398462522
2.059               0.0690137291     -0.39705076      0.530197009    -0.108947519      0.530195062    -0.108946383     0.0679837886    -0.396630816
2.0604              0.0688228534    -0.395222665      0.530544079    -0.110379703      0.530542145    -0.110378561     0.0677937157    -0.394800592
2.0618              0.0686440936    -0.393396135      0.530884742    -0.111815505      0.530882822    -0.111814356     0.0676157619    -0.392971946
2.0632              0.0684774209    -0.391571264       0.53121896    -0.113254886      0.531217054     -0.11325373     0.0674498984    -0.391144971
2.0646              0.0683228058    -0.389748146      0.531546694    -0.114697804      0.531544803    -0.114696643     0.0672960956    -0.389319762
2.066               0.0681802178    -0.387926875      0.531867908    -0.116144221      0.531866031    -0.116143053     0.0671543227    -0.387496411
2.0674              0.0680496255    -0.386107544      0.532182563    -0.117594094        0.5321807    -0.117592921     0.0670245483    -0.385675013
2.0688              0.0679309967    -0.384290245      0.532490622    -0.119047382      0.532488774    -0.119046203       0.06690674    -0.383855659
2.0702              0.0678242983     -0.38247507      0.532792048    -0.120504044      0.532790215     -0.12050286     0.0668008646    -0.382038441
2.0716              0.0677294964     -0.38066211      0.533086805    -0.121964036      0.533084986    -0.121962847     0.0667068881     -0.38022345
2.073               0.0676465561    -0.378851457      0.533374855    -0.123427317      0.533373052    -0.123426123     0.0666247754    -0.378410778
2.0744              0.0675754418    -0.377043201      0.533656165    -0.124893843      0.533654376    -0.124892643      0.066554491    -0.376600515
2.0758              0.0675161171    -0.375237432      0.533930696     -0.12636357      0.533928923    -0.126362366     0.0664959983    -0.374792749
2.0772              0.0674685447    -0.373434238      0.534198416    -0.127836454      0.534196658    -0.127835245     0.0664492598    -0.372987571
2.0786              0.0674326866    -0.371633709      0.534459288     -0.12931245      0.534457545    -0.129311237     0.0664142374    -0.371185069
2.08                0.0674085039    -0.369835932      0.534713278    -0.130791514       0.53471155    -0.130790297     0.0663908921    -0.369385331
2.0814               0.067395957    -0.368040995      0.534960352      -0.1322736       0.53495864    -0.132272379     0.0663791843    -0.367588444
2.0828              0.0673950054    -0.366248985      0.535200476    -0.133758662       0.53519878    -0.133757437     0.0663790733    -0.365794494
2.0842               0.067405608    -0.364459988      0.535433617    -0.135246654      0.535431937    -0.135245425      0.066390518    -0.364003569
2.0856              0.0674277228     -0.36267409      0.535659742    -0.136737529      0.535658078    -0.136736296     0.0664134762    -0.362215754
2.087               0.0674613072    -0.360891375      0.535878818     -0.13823124       0.53587717    -0.138230004     0.0664479053    -0.360431132
2.0884              0.0675063178    -0.359111928      0.536090813    -0.139727739      0.536089181      -0.1397265     0.0664937617     -0.35864979
2.0898              0.0675627104    -0.357335833      0.536295695    -0.141226979      0.536294079    -0.141225737     0.0665510012    -0.356871809
2.0912              0.0676304401    -0.355563172      0.536493434    -0.142728911      0.536491834    -0.142727666     0.0666195788    -0.355097274
2.0926              0.0677094615    -0.353794029      0.536683997    -0.144233486      0.536682414    -0.144232239     0.0666994491    -0.353326267
2.094               0.0677997283    -0.352028484      0.536867354    -0.145740656      0.536865788    -0.145739406     0.0667905655    -0.351558868
2.0954              0.0679011935    -0.350266619      0.537043476     -0.14725037      0.537041926    -0.147249118     0.0668928812     -0.34979516
2.0968              0.0680138096    -0.348508515      0.537212333    -0.148762579        0.5372108    -0.148761325     0.0670063484    -0.348035222
2.0982              0.0681375284    -0.346754251      0.537373895    -0.150277232      0.537372379    -0.150275976     0.0671309189    -0.346279135
2.0996              0.0682723008    -0.345003905      0.537528134    -0.151794279      0.537526634    -0.151793021     0.0672665436    -0.344526976
2.101               0.0684180775    -0.343257558      0.537675022    -0.153313668      0.537673539    -0.153312409      0.067413173    -0.342778825
2.1024              0.0685748081    -0.341515285       0.53781453    -0.154835349      0.537813064    -0.154834089     0.0675707568    -0.341034758
2.1038               0.068742442    -0.339777165      0.537946631    -0.156359269      0.537945182    -0.156358008     0.0677392442    -0.339294854
2.1052              0.0689209277    -0.338043273      0.538071299    -0.157885376      0.538069866    -0.157884114     0.0679185837    -0.337559187
2.1066              0.0691102132    -0.336313685      0.538188506    -0.159413618      0.538187091    -0.159412356     0.0681087233    -0.335827833
2.108                0.069310246    -0.334588475      0.538298227    -0.160943942      0.538296829    -0.160942679     0.0683096103    -0.334100868
2.1094              0.0695209729    -0.332867719      0.538400437    -0.162476295      0.538399056    -0.162475031     0.0685211915    -0.332378364
2.1108              0.0697423402    -0.331151489      0.538495111    -0.164010622      0.538493747    -0.164009359     0.0687434132    -0.330660396
2.1122              0.0699742937    -0.329439858      0.538582223    -0.165546872      0.538580877    -0.165545608     0.0689762211    -0.328947036
2.1136              0.0702167785    -0.327732897      0.538661751    -0.167084988      0.538660422    -0.167083725     0.0692195603    -0.327238355
2.115               0.0704697393    -0.326030679       0.53873367    -0.168624917      0.538732359    -0.168623654     0.0694733754    -0.325534426
2.1164              0.0707331203    -0.324333273      0.538797958    -0.170166603      0.538796664    -0.170165342     0.0697376106    -0.323835318
2.1178               0.071006865     -0.32264075      0.538854593    -0.171709993      0.538853316    -0.171708732     0.0700122093      -0.3221411
2.1192              0.0712909167    -0.320953177      0.538903552    -0.173255029      0.538902292     -0.17325377     0.0702971148    -0.320451842
2.1206              0.0715852179    -0.319270625      0.538944814    -0.174801658      0.538943572    -0.174800399     0.0705922697    -0.318767612
2.122               0.0718897109    -0.317593159      0.538978358    -0.176349822      0.538977133    -0.176348565      0.070897616    -0.317088478
2.1234              0.0722043374    -0.315920847      0.539004164    -0.177899465      0.539002957     -0.17789821     0.0712130955    -0.315414505
2.1248              0.0725290385    -0.314253755      0.539022212    -0.179450531      0.539021023    -0.179449278     0.0715386494     -0.31374576
2.1262              0.0728637552    -0.312591947      0.539032483    -0.181002963      0.539031312    -0.181001712     0.0718742184    -0.312082308
2.1276              0.0732084278    -0.310935489      0.539034959    -0.182556703      0.539033805    -0.182555455      0.072219743    -0.310424213
2.129               0.0735629963    -0.309284444      0.539029621    -0.184111696      0.539028484    -0.184110449      0.072575163    -0.308771539
2.1304              0.0739274002    -0.307638875      0.539016451    -0.185667882      0.539015332    -0.185666638      0.072940418    -0.307124348
2.1318              0.0743015787    -0.305998844      0.538995433    -0.187225204      0.538994332    -0.187223963     0.0733154471    -0.305482704
2.1332              0.0746854704    -0.304364412       0.53896655    -0.188783604      0.538965466    -0.188782367     0.0737001891    -0.303846666
2.1346              0.0750790139    -0.302735641      0.538929787    -0.190343024      0.538928721     -0.19034179     0.0740945823    -0.302216296
2.136               0.0754821471    -0.301112589      0.538885128    -0.191903406      0.538884079    -0.191902175     0.0744985647    -0.300591653
2.1374              0.0758948077    -0.299495317      0.538832558    -0.193464689      0.538831526    -0.193463462     0.0749120739    -0.298972796
2.1388              0.0763169329    -0.297883883      0.538772063    -0.195026817      0.538771049    -0.195025593     0.0753350473    -0.297359785
2.1402              0.0767484598    -0.296278343       0.53870363    -0.196589728      0.538702634    -0.196588509     0.0757674217    -0.295752675
2.1416               0.077189325    -0.294678755      0.538627246    -0.198153365      0.538626267     -0.19815215     0.0762091339    -0.294151524
2.143               0.0776394648    -0.293085175      0.538542898    -0.199717668      0.538541937    -0.199716457     0.0766601202    -0.292556387
2.1444              0.0780988152    -0.291497657      0.538450575    -0.201282576      0.538449631     -0.20128137     0.0771203165     -0.29096732
2.1458               0.078567312    -0.289916258      0.538350265    -0.202848031      0.538349339    -0.202846829     0.0775896586    -0.289384378
2.1472              0.0790448906    -0.288341029      0.538241959    -0.204413971       0.53824105    -0.204412775      0.078068082    -0.287807613
2.1486              0.0795314862    -0.286772024      0.538125645    -0.205980337      0.538124753    -0.205979146     0.0785555217    -0.286237078
2.15                0.0800270337    -0.285209296      0.538001314    -0.207547069       0.53800044    -0.207545883     0.0790519128    -0.284672827
2.1514              0.0805314678    -0.283652895      0.537868959    -0.209114106      0.537868102    -0.209112926     0.0795571899    -0.283114909
2.1528              0.0810447227    -0.282102872       0.53772857    -0.210681388       0.53772773    -0.210680213     0.0800712873    -0.281563375
2.1542              0.0815667328    -0.280559277       0.53758014    -0.212248853      0.537579317    -0.212247684     0.0805941393    -0.280018276
2.1556               0.082097432    -0.279022159      0.537423662    -0.213816441      0.537422857    -0.213815278     0.0811256798     -0.27847966
2.157                0.082636754    -0.277491567       0.53725913    -0.215384091      0.537258342    -0.215382935     0.0816658426    -0.276947575
2.1584              0.0831846323    -0.275967547      0.537086538    -0.216951742      0.537085767    -0.216950592     0.0822145611    -0.275422069
2.1598              0.0837410003    -0.274450147      0.536905881    -0.218519333      0.536905127    -0.218518189     0.0827717688    -0.273903188
2.1612              0.0843057912    -0.272939412      0.536717154    -0.220086802      0.536716417    -0.220085666     0.0833373988    -0.272390979
2.1626              0.0848789378    -0.271435388      0.536520354    -0.221654089      0.536519634    -0.221652959     0.0839113841    -0.270885486
2.164               0.0854603731     -0.26993812      0.536315478    -0.223221132      0.536314775    -0.223220009     0.0844936576    -0.269386754
2.1654              0.0860500296     -0.26844765      0.536102522    -0.224787869      0.536101836    -0.224786753     0.0850841518    -0.267894827
2.1668              0.0866478399    -0.266964022      0.535881485    -0.226354239      0.535880816    -0.226353131     0.0856827993    -0.266409747
2.1682              0.0872537364    -0.265487278      0.535652366     -0.22792018      0.535651713     -0.22791908     0.0862895325    -0.264931556
2.1696              0.0878676512    -0.264017459      0.535415164    -0.229485632      0.535414527     -0.22948454     0.0869042837    -0.263460296
2.171               0.0884895166    -0.262554607      0.535169878    -0.231050532      0.535169258    -0.231049447      0.087526985    -0.261996008
2.1724              0.0891192644    -0.261098761       0.53491651    -0.232614818      0.534915906    -0.232613742     0.0881575684    -0.260538731
2.1738              0.0897568267     -0.25964996      0.534655059     -0.23417843      0.534654472    -0.234177362     0.0887959658    -0.259088504
2.1752              0.0904021353    -0.258208242      0.534385529    -0.235741305      0.534384958    -0.235740245     0.0894421092    -0.257645366
2.1766              0.0910551218    -0.256773646      0.534107922    -0.237303382      0.534107367    -0.237302331     0.0900959302    -0.256209355
2.178               0.0917157179    -0.255346208       0.53382224    -0.238864599      0.533821701    -0.238863557     0.0907573605    -0.254780506
2.1794              0.0923838553    -0.253925965      0.533528488    -0.240424894      0.533527965    -0.240423861     0.0914263317    -0.253358858
2.1808              0.0930594654    -0.252512951      0.533226669    -0.241984207      0.533226162    -0.241983183     0.0921027755    -0.251944444
2.1822              0.0937424798    -0.251107203      0.532916789    -0.243542475      0.532916297     -0.24354146     0.0927866232      -0.2505373
2.1836              0.0944328298    -0.249708753      0.532598853    -0.245099638      0.532598377    -0.245098632     0.0934778065    -0.249137459
2.185               0.0951304469    -0.248317635      0.532272867    -0.246655633      0.532272406    -0.246654636     0.0941762566    -0.247744955
2.1864              0.0958352624    -0.246933881      0.531938838    -0.248210399      0.531938393    -0.248209412      0.094881905     -0.24635982
2.1878              0.0965472078    -0.245557525      0.531596774    -0.249763875      0.531596344    -0.249762898     0.0955946832    -0.244982086
2.1892              0.0972662143    -0.244188595      0.531246682    -0.251315999      0.531246268    -0.251315032     0.0963145224    -0.243611785
2.1906              0.0979922134    -0.242827124      0.530888572    -0.252866711      0.530888173    -0.252865755     0.0970413541    -0.242248946
2.192               0.0987251364    -0.241473141      0.530522452     -0.25441595      0.530522068    -0.254415003     0.0977751097      -0.2408936
2.1934              0.0994649146    -0.240126674      0.530148333    -0.255963654      0.530147964    -0.255962718     0.0985157206    -0.239545774
2.1948                0.10021148    -0.238787753      0.529766225    -0.257509763       0.52976587    -0.257508838     0.0992631181    -0.238205498
2.1962               0.100964763    -0.237456404      0.529376139    -0.259054216      0.529375799    -0.259053301      0.100017234      -0.2368728
2.1976               0.101724695    -0.236132655      0.528978088    -0.260596953      0.528977762    -0.260596048      0.100777999    -0.235547705
2.199                0.102491209    -0.234816532      0.528572083    -0.262137912      0.528571772    -0.262137018      0.101545346    -0.234230241
2.2004               0.103264235    -0.233508061      0.528158137    -0.263677034      0.528157841    -0.263676151      0.102319205    -0.232920432
2.2018               0.104043705    -0.232207265      0.527736265    -0.265214259      0.527735982    -0.265213387      0.103099509    -0.231618304
2.2032               0.104829552    -0.230914171       0.52730648    -0.266749525      0.527306211    -0.266748665      0.103886189     -0.23032388
2.2046               0.105621706      -0.2296288      0.526868797    -0.268282775      0.526868543    -0.268281926      0.104679176    -0.229037185
2.206                0.106420099    -0.228351177      0.526423232    -0.269813947      0.526422991     -0.26981311      0.105478404    -0.227758241
2.2074               0.107224664    -0.227081323      0.525969801    -0.271342983      0.525969574    -0.271342157      0.106283803     -0.22648707
2.2088               0.108035332    -0.225819259       0.52550852    -0.272869823      0.525508307    -0.272869009      0.107095306    -0.225223694
2.2102               0.108852036    -0.224565008      0.525039407    -0.274394408      0.525039207    -0.274393605      0.107912845    -0.223968134
2.2116               0.109674707    -0.223318588       0.52456248    -0.275916679      0.524562293    -0.275915888      0.108736353     -0.22272041
2.213                0.110503279     -0.22208002      0.524077756    -0.277436578      0.524077582    -0.277435799       0.10956576    -0.221480541
2.2144               0.111337683    -0.220849322      0.523585256    -0.278954045      0.523585095    -0.278953278      0.110401001    -0.220248547
2.2158               0.112177852    -0.219626513      0.523084998    -0.280469023      0.523084849    -0.280468268      0.111242007    -0.219024445
2.2172               0.113023718    -0.218411611      0.522577003    -0.281981454      0.522576867    -0.281980711      0.112088712    -0.217808254
2.2186               0.113875216    -0.217204632      0.522061291     -0.28349128      0.522061168     -0.28349055      0.112941047     -0.21659999
2.22                 0.114732276    -0.216005594      0.521537884    -0.284998443      0.521537774    -0.284997725      0.113798947    -0.215399671
2.2214               0.115594834    -0.214814511      0.521006805    -0.286502886      0.521006706    -0.286502181      0.114662345    -0.214207311
2.2228               0.116462821      -0.2136314      0.520468074    -0.288004553      0.520467987     -0.28800386      0.115531173    -0.213022926
2.2242               0.117336172    -0.212456275      0.519921716    -0.289503385      0.519921641    -0.289502705      0.116405364    -0.211846531
2.2256               0.118214819    -0.211289149      0.519367754    -0.290999328      0.519367691     -0.29099866      0.117284854    -0.210678139
2.227                0.119098697    -0.210130037      0.518806211    -0.292492324       0.51880616    -0.292491669      0.118169575    -0.209517764
2.2284                0.11998774    -0.208978951      0.518237114    -0.293982318      0.518237074    -0.293981676      0.119059462     -0.20836542
2.2298               0.120881881    -0.207835903      0.517660487    -0.295469255      0.517660458    -0.295468626      0.119954448    -0.207221117
2.2312               0.121781055    -0.206700906      0.517076356    -0.296953078      0.517076338    -0.296952462      0.120854468    -0.206084869
2.2326               0.122685197     -0.20557397      0.516484746    -0.298433734       0.51648474    -0.298433131      0.121759457    -0.204956685
2.234                0.123594241    -0.204455106      0.515885686    -0.299911166       0.51588569    -0.299910576      0.122669349    -0.203836577
2.2354               0.124508122    -0.203344323      0.515279202    -0.301385322      0.515279217    -0.301384745      0.123584078    -0.202724554
2.2368               0.125426775    -0.202241632      0.514665323    -0.302856147      0.514665348    -0.302855583      0.124503581    -0.201620627
2.2382               0.126350135    -0.201147041      0.514044076    -0.304323587      0.514044112    -0.304323037      0.125427793    -0.200524803
2.2396               0.127278138    -0.200060558      0.513415491    -0.305787589      0.513415537    -0.305787052      0.126356648    -0.199437091
2.241                0.128210719    -0.198982192      0.512779598      -0.3072481      0.512779654    -0.307247577      0.127290083    -0.198357499
2.2424               0.129147815    -0.197911948      0.512136425    -0.308705068      0.512136491    -0.308704558      0.128228034    -0.197286034
2.2438               0.130089362    -0.196849835      0.511486004     -0.31015844      0.511486079    -0.310157943      0.129170437    -0.196222703
2.2452               0.131035295    -0.195795859      0.510828365    -0.311608164       0.51082845     -0.31160768      0.130117227    -0.195167512
2.2466               0.131985552    -0.194750024       0.51016354    -0.313054189      0.510163635    -0.313053719      0.131068343    -0.194120466
2.248                0.132940069    -0.193712337      0.509491562    -0.314496463      0.509491665    -0.314496007      0.132023721    -0.193081571
2.2494               0.133898784    -0.192682801      0.508812461    -0.315934936      0.508812574    -0.315934494      0.132983297    -0.192050832
2.2508               0.134861634    -0.191661421      0.508126271    -0.317369558      0.508126393    -0.317369129       0.13394701    -0.191028252
2.2522               0.135828556    -0.190648201      0.507433026    -0.318800279      0.507433156    -0.318799863      0.134914797    -0.190013836
2.2536               0.136799488    -0.189643144      0.506732759    -0.320227048      0.506732898    -0.320226646      0.135886595    -0.189007586
2.255                0.137774369    -0.188646252      0.506025505    -0.321649818      0.506025652    -0.321649429      0.136862343    -0.188009505
2.2564               0.138753136    -0.187657527      0.505311297    -0.323068538      0.505311452    -0.323068163       0.13784198    -0.187019595
2.2578               0.139735728    -0.186676972      0.504590172    -0.324483161      0.504590335      -0.3244828      0.138825443    -0.186037858
2.2592               0.140722084    -0.185704587      0.503862164    -0.325893639      0.503862335    -0.325893292      0.139812672    -0.185064296
2.2606               0.141712144    -0.184740374       0.50312731    -0.327299924      0.503127489    -0.327299591      0.140803605    -0.184098908
2.262                0.142705846    -0.183784332      0.502385646     -0.32870197      0.502385832     -0.32870165      0.141798183    -0.183141695
2.2634                0.14370313    -0.182836461      0.501637209    -0.330099729      0.501637403    -0.330099423      0.142796345    -0.182192658
2.2648               0.144703936    -0.181896761      0.500882036    -0.331493156      0.500882237    -0.331492863      0.143798031    -0.181251795
2.2662               0.145708205     -0.18096523      0.500120165    -0.332882205      0.500120373    -0.332881925      0.144803181    -0.180319105
2.2676               0.146715877    -0.180041868      0.499351634     -0.33426683      0.499351848    -0.334266564      0.145811736    -0.179394587
2.269                0.147726892    -0.179126672       0.49857648    -0.335646987      0.498576702    -0.335646735      0.146823636     -0.17847824
2.2704               0.148741192     -0.17821964      0.497794744    -0.337022631      0.497794972    -0.337022392      0.147838823     -0.17757006
2.2718               0.149758718    -0.177320768      0.497006464    -0.338393718      0.497006698    -0.338393493      0.148857238    -0.176670044
2.2732               0.150779412    -0.176430055      0.496211679    -0.339760205       0.49621192    -0.339759994      0.149878822    -0.175778191
2.2746               0.151803215    -0.175547496       0.49541043    -0.341122049      0.495410677    -0.341121851      0.150903518    -0.174894496
2.276                 0.15283007    -0.174673087      0.494602757    -0.342479208      0.494603009    -0.342479023      0.151931268    -0.174018954
2.2774                0.15385992    -0.173806824        0.4937887    -0.343831638      0.493788958    -0.343831468      0.152962014    -0.173151563
2.2788               0.154892707    -0.172948702      0.492968301      -0.3451793      0.492968564    -0.345179143      0.153995699    -0.172292316
2.2802               0.155928374    -0.172098716        0.4921416    -0.346522151      0.492141869    -0.346522007      0.155032267    -0.171441209
2.2816               0.156966865     -0.17125686       0.49130864    -0.347860152      0.491308914    -0.347860021      0.156071661    -0.170598236
2.283                0.158008123    -0.170423128      0.490469461    -0.349193261       0.49046974    -0.349193144      0.157113824    -0.169763391
2.2844               0.159052092    -0.169597513      0.489624107     -0.35052144      0.489624391    -0.350521336        0.1581587    -0.168936668
2.2858               0.160098718     -0.16878001       0.48877262    -0.351844649      0.488772909    -0.351844559      0.159206235     -0.16811806
2.2872               0.161147944    -0.167970611      0.487915043     -0.35316285      0.487915337    -0.353162773      0.160256372     -0.16730756
2.2886               0.162199715    -0.167169308      0.487051419    -0.354476004      0.487051717     -0.35447594      0.161309057     -0.16650516
2.29                 0.163253977    -0.166376094      0.486181792    -0.355784074      0.486182093    -0.355784023      0.162364235    -0.165710854
2.2914               0.164310675    -0.165590961      0.485306204    -0.357087023       0.48530651    -0.357086985      0.163421851    -0.164924632
2.2928               0.165369756    -0.164813899      0.484424701    -0.358384814      0.484425011    -0.358384789      0.164481852    -0.164146486
2.2942               0.166431164    -0.164044901      0.483537326    -0.359677412      0.483537639    -0.359677399      0.165544183    -0.163376408
2.2956               0.167494848    -0.163283957      0.482644124    -0.360964779      0.482644441     -0.36096478      0.166608792    -0.162614387
2.297                0.168560753    -0.162531057      0.481745139    -0.362246882       0.48174546    -0.362246896      0.167675624    -0.161860416
2.2984               0.169628827    -0.161786192      0.480840418    -0.363523686      0.480840742    -0.363523712      0.168744627    -0.161114483
2.2998               0.170699018    -0.161049351      0.479930004    -0.364795157      0.479930331    -0.364795196       0.16981575    -0.160376579
2.3012               0.171771273    -0.160320524      0.479013944    -0.366061261      0.479014274    -0.366061312      0.170888938    -0.159646694
2.3026               0.172845539    -0.159599701      0.478092282    -0.367321965      0.478092615    -0.367322029      0.171964142    -0.158924815
2.304                0.173921767    -0.158886869      0.477165066    -0.368577237      0.477165402    -0.368577313      0.173041308    -0.158210934
2.3054               0.174999904    -0.158182019      0.476232341    -0.369827044       0.47623268    -0.369827133      0.174120386    -0.157505038
2.3068                 0.1760799    -0.157485137      0.475294154    -0.371071356      0.475294494    -0.371071457      0.175201326    -0.156807115
2.3082               0.177161703    -0.156796212       0.47435055    -0.372310141      0.474350893    -0.372310255      0.176284075    -0.156117153
2.3096               0.178245264    -0.156115233      0.473401577    -0.373543369      0.473401922    -0.373543495      0.177368585    -0.155435141
2.311                0.179330533    -0.155442185      0.472447282    -0.374771011      0.472447629    -0.374771148      0.178454804    -0.154761066
2.3124                0.18041746    -0.154777057      0.471487712    -0.375993036       0.47148806    -0.375993185      0.179542685    -0.154094915
2.3138               0.181505996    -0.154119836      0.470522913    -0.377209416      0.470523264    -0.377209577      0.180632176    -0.153436675
2.3152               0.182596092    -0.153470507      0.469552934    -0.378420123      0.469553286    -0.378420296       0.18172323    -0.152786332
2.3166               0.183687699    -0.152829058      0.468577821    -0.379625128      0.468578175    -0.379625313      0.182815798    -0.152143874
2.318                0.184780768    -0.152195474      0.467597623    -0.380824405      0.467597978    -0.380824601      0.183909831    -0.151509285
2.3194               0.185875253    -0.151569742      0.466612387    -0.382017927      0.466612743    -0.382018135      0.185005281    -0.150882553
2.3208               0.186971105    -0.150951847      0.465622162    -0.383205668      0.465622519    -0.383205887      0.186102101    -0.150263663
2.3222               0.188068277    -0.150341774      0.464626995    -0.384387602      0.464627353    -0.384387832      0.187200243      -0.1496526
2.3236               0.189166721    -0.149739509      0.463626934    -0.385563703      0.463627293    -0.385563945      0.188299661    -0.149049349
2.325                0.190266392    -0.149145036      0.462622028    -0.386733949      0.462622388    -0.386734201      0.189400307    -0.148453895
2.3264               0.191367243     -0.14855834      0.461612326    -0.387898313      0.461612686    -0.387898577      0.190502136    -0.147866224
2.3278               0.192469227    -0.147979406      0.460597875    -0.389056773      0.460598236    -0.389057047      0.191605101    -0.147286319
2.3292                 0.1935723    -0.147408218      0.459578725    -0.390209306      0.459579086    -0.390209591      0.192709157    -0.146714165
2.3306               0.194676415    -0.146844759      0.458554924    -0.391355889      0.458555284    -0.391356184      0.193814258    -0.146149746
2.332                0.195781528    -0.146289014       0.45752652      -0.3924965      0.457526881    -0.392496806      0.194920358    -0.145593045
2.3334               0.196887594    -0.145740966      0.456493563    -0.393631118      0.456493924    -0.393631434      0.196027415    -0.145044046
2.3348               0.197994568    -0.145200599      0.455456102    -0.394759722      0.455456462    -0.394760048      0.197135382    -0.144502734
2.3362               0.199102407    -0.144667895      0.454414185    -0.395882291      0.454414545    -0.395882628      0.198244216     -0.14396909
2.3376               0.200211066    -0.144142838      0.453367861    -0.396998806      0.453368221    -0.396999153      0.199353873    -0.143443098
2.339                0.201320503    -0.143625411       0.45231718    -0.398109247      0.452317539    -0.398109604       0.20046431     -0.14292474
2.3404               0.202430673    -0.143115596      0.451262191    -0.399213595      0.451262549    -0.399213962      0.201575484    -0.142414001
2.3418               0.203541535    -0.142613375      0.450202942    -0.400311833      0.450203299    -0.400312209      0.202687351     -0.14191086
2.3432               0.204653046    -0.142118731      0.449139482    -0.401403941      0.449139839    -0.401404327       0.20379987    -0.141415302
2.3446               0.205765163    -0.141631645      0.448071862    -0.402489904      0.448072218    -0.402490299      0.204912998    -0.140927309
2.346                0.206877845    -0.141152101      0.447000129    -0.403569704      0.447000484    -0.403570108      0.206026693    -0.140446861
2.3474               0.207991051    -0.140680079      0.445924334    -0.404643324      0.445924688    -0.404643738      0.207140913    -0.139973941
2.3488               0.209104739     -0.14021556      0.444844525     -0.40571075      0.444844877    -0.405711172      0.208255619    -0.139508531
2.3502               0.210218867    -0.139758527      0.443760752    -0.406771965      0.443761103    -0.406772397      0.209370768    -0.139050611
2.3516               0.211333397    -0.139308961      0.442673063    -0.407826956      0.442673412    -0.407827396       0.21048632    -0.138600164
2.353                0.212448287    -0.138866842      0.441581508    -0.408875707      0.441581855    -0.408876156      0.211602235     -0.13815717
2.3544               0.213563497    -0.138432152      0.440486136    -0.409918206      0.440486481    -0.409918663      0.212718472     -0.13772161
2.3558               0.214678989    -0.138004871      0.439386995    -0.410954438      0.439387339    -0.410954903      0.213834994    -0.137293465
2.3572               0.215794722     -0.13758498      0.438284135    -0.411984391      0.438284478    -0.411984865      0.214951759    -0.136872716
2.3586               0.216910657     -0.13717246      0.437177605    -0.413008053      0.437177946    -0.413008535      0.216068729    -0.136459343
2.36                 0.218026757     -0.13676729      0.436067454    -0.414025412      0.436067793    -0.414025902      0.217185865    -0.136053326
2.3614               0.219142981    -0.136369452      0.434953731    -0.415036457      0.434954067    -0.415036954      0.218303129    -0.135654647
2.3628               0.220259294    -0.135978924      0.433836484    -0.416041177      0.433836818    -0.416041681      0.219420483    -0.135263285
2.3642               0.221375656    -0.135595688      0.432715762    -0.417039561      0.432716094    -0.417040073      0.220537889    -0.134879219
2.3656               0.222492031    -0.135219723      0.431591614      -0.4180316      0.431591943    -0.418032119       0.22165531    -0.134502431
2.367                 0.22360838    -0.134851008      0.430464088    -0.419017284      0.430464415    -0.419017811      0.222772708    -0.134132899
2.3684               0.224724668    -0.134489524      0.429333233    -0.419996605      0.429333558    -0.419997139      0.223890046    -0.133770604
2.3698               0.225840858     -0.13413525      0.428199098    -0.420969554       0.42819942    -0.420970095      0.225007289    -0.133415524
2.3712               0.226956913    -0.133788165       0.42706173    -0.421936123      0.427062049     -0.42193667      0.226124399     -0.13306764
2.3726               0.228072798    -0.133448248      0.425921178    -0.422896305      0.425921495    -0.422896859      0.227241341    -0.132726931
2.374                0.229188477    -0.133115479       0.42477749    -0.423850092      0.424777804    -0.423850652       0.22835808    -0.132393375
2.3754               0.230303915    -0.132789837      0.423630714    -0.424797479      0.423631025    -0.424798045      0.229474579    -0.132066953
2.3768               0.231419076      -0.1324713      0.422480898    -0.425738458      0.422481207     -0.42573903      0.230590804    -0.131747642
2.3782               0.232533926    -0.132159849       0.42132809    -0.426673024      0.421328395    -0.426673603       0.23170672    -0.131435422
2.3796               0.233648431     -0.13185546      0.420172337    -0.427601173      0.420172639    -0.427601757      0.232822293    -0.131130273
2.381                0.234762556    -0.131558114      0.419013687    -0.428522899      0.419013986    -0.428523489      0.233937488    -0.130832171
2.3824               0.235876267    -0.131267789      0.417852188    -0.429438198      0.417852484    -0.429438793      0.235052272    -0.130541097
2.3838               0.236989532    -0.130984463      0.416687885    -0.430347066      0.416688178    -0.430347667      0.236166611    -0.130257029
2.3852               0.238102316    -0.130708115      0.415520828      -0.4312495      0.415521117    -0.431250105      0.237280471    -0.129979945
2.3866               0.239214587    -0.130438723      0.414351062    -0.432145496      0.414351348    -0.432146107       0.23839382    -0.129709824
2.388                0.240326312    -0.130176265      0.413178635    -0.433035052      0.413178918    -0.433035668      0.239506625    -0.129446644
2.3894               0.241437458    -0.129920721      0.412003592    -0.433918167      0.412003872    -0.433918787      0.240618854    -0.129190383
2.3908               0.242547994    -0.129672067      0.410825982    -0.434794837      0.410826258    -0.434795462      0.241730473     -0.12894102
2.3922               0.243657887    -0.129430283      0.409645849    -0.435665063      0.409646122    -0.435665692      0.242841453    -0.128698532
2.3936               0.244767106    -0.129195345       0.40846324    -0.436528842       0.40846351    -0.436529476       0.24395176    -0.128462899
2.395                 0.24587562    -0.128967233      0.407278202    -0.437386175      0.407278468    -0.437386812      0.245061363    -0.128234097
2.3964               0.246983398    -0.128745924      0.406090779    -0.438237061      0.406091042    -0.438237702      0.246170233    -0.128012105
2.3978               0.248090409    -0.128531395      0.404901019      -0.4390815      0.404901277    -0.439082146      0.247278337    -0.127796901
2.3992               0.249196622    -0.128323626      0.403708965    -0.439919494       0.40370922    -0.439920144      0.248385645    -0.127588462
2.4006               0.250302008    -0.128122593      0.402514663    -0.440751044      0.402514915    -0.440751696      0.249492127    -0.127386767
2.402                0.251406536    -0.127928274      0.401318159     -0.44157615      0.401318407    -0.441576806      0.250597754    -0.127191793
2.4034               0.252510177    -0.127740648      0.400119498    -0.442394815      0.400119742    -0.442395474      0.251702495    -0.127003518
2.4048               0.253612901     -0.12755969      0.398918723    -0.443207041      0.398918964    -0.443207703      0.252806321    -0.126821919
2.4062                0.25471468    -0.127385381       0.39771588    -0.444012831      0.397716117    -0.444013496      0.253909202    -0.126646975
2.4076               0.255815484    -0.127217695      0.396511013    -0.444812187      0.396511246    -0.444812855      0.255011111    -0.126478662
2.409                0.256915285    -0.127056613      0.395304166    -0.445605114      0.395304394    -0.445605784      0.256112019    -0.126316959
2.4104               0.258014055     -0.12690211      0.394095382    -0.446391614      0.394095607    -0.446392286      0.257211896    -0.126161843
2.4118               0.259111765    -0.126754164      0.392884706    -0.447171692      0.392884927    -0.447172367      0.258310715    -0.126013291
2.4132               0.260208388    -0.126612753       0.39167218    -0.447945352      0.391672398    -0.447946029      0.259408449    -0.125871281
2.4146               0.261303895    -0.126477854      0.390457849    -0.448712599      0.390458062    -0.448713278      0.260505069     -0.12573579
2.416                0.262398261    -0.126349444      0.389241755    -0.449473439      0.389241964    -0.449474119      0.261600548    -0.125606796
2.4174               0.263491458    -0.126227502       0.38802394    -0.450227876      0.388024146    -0.450228558      0.262694859    -0.125484276
2.4188               0.264583459    -0.126112003      0.386804448    -0.450975917       0.38680465      -0.4509766      0.263787976    -0.125368207
2.4202               0.265674237    -0.126002926       0.38558332    -0.451717567      0.385583518    -0.451718252      0.264879871    -0.125258567
2.4216               0.266763766    -0.125900248      0.384360599    -0.452452834      0.384360793    -0.452453519      0.265970519    -0.125155334
2.423                0.267852021    -0.125803946      0.383136327    -0.453181723      0.383136517     -0.45318241      0.267059894    -0.125058484
2.4244               0.268938975    -0.125713997      0.381910545    -0.453904243      0.381910731     -0.45390493      0.268147969    -0.124967994
2.4258               0.270024603    -0.125630379      0.380683294      -0.4546204      0.380683476    -0.454621088      0.269234719    -0.124883843
2.4272                0.27110888    -0.125553068      0.379454616    -0.455330202      0.379454794    -0.455330891      0.270320118    -0.124806007
2.4286                0.27219178    -0.125482043      0.378224551    -0.456033658      0.378224726    -0.456034348      0.271404143    -0.124734463
2.43                 0.273273278     -0.12541728      0.376993141    -0.456730776      0.376993311    -0.456731466      0.272486766    -0.124669189
2.4314               0.274353351    -0.125358757      0.375760424    -0.457421564      0.375760591    -0.457422254      0.273567965    -0.124610163
2.4328               0.275431974     -0.12530645      0.374526443    -0.458106032      0.374526605    -0.458106722      0.274647715    -0.124557361
2.4342               0.276509122    -0.125260338      0.373291235    -0.458784188      0.373291394    -0.458784878      0.275725991     -0.12451076
2.4356               0.277584772    -0.125220397      0.372054842    -0.459456043      0.372054997    -0.459456732      0.276802769    -0.124470338
2.437                  0.2786589    -0.125186604      0.370817302    -0.460121606      0.370817453    -0.460122294      0.277878027    -0.124436073
2.4384               0.279731482    -0.125158937      0.369578654    -0.460780887      0.369578801    -0.460781574       0.27895174    -0.124407941
2.4398               0.280802497    -0.125137373      0.368338938    -0.461433896      0.368339081    -0.461434583      0.280023885    -0.124385919
2.44                 0.280955369    -0.125134789       0.36816175    -0.461526672      0.368161893    -0.461527359      0.280176919    -0.124383271
2.4412               0.281871919    -0.125121889      0.367098191    -0.462080645       0.36709833    -0.462081331      0.281094439    -0.124369986
2.4426               0.282939727    -0.125112463      0.365856452    -0.462721144      0.365856588    -0.462721829      0.282163379    -0.124360118
2.444                0.284005899    -0.125109072       0.36461376    -0.463355404      0.364613891    -0.463356088      0.283230683    -0.124356292
2.4454               0.285070411    -0.125111692      0.363370151    -0.463983437      0.363370279    -0.463984119      0.284296329    -0.124358486
2.4468               0.286133242    -0.125120302      0.362125663    -0.464605254      0.362125787    -0.464605935      0.285360294    -0.124366678
2.4482                0.28719437    -0.125134879      0.360880334    -0.465220868      0.360880454    -0.465221547      0.286422556    -0.124380844
2.4496               0.288253773      -0.1251554        0.3596342     -0.46583029      0.359634317    -0.465830967      0.287483094    -0.124400962
2.451                 0.28931143    -0.125181842      0.358387298    -0.466433533      0.358387412    -0.466434209      0.288541886    -0.124427009
2.4524               0.290367319    -0.125214182      0.357139665     -0.46703061      0.357139775    -0.467031283      0.289598911    -0.124458962
2.4538                0.29142142    -0.125252399      0.355891337    -0.467621533      0.355891442    -0.467622204      0.290654148      -0.1244968
2.4552               0.292473712     -0.12529647      0.354642348    -0.468206316      0.354642451    -0.468206985      0.291707576    -0.124540499
2.4566               0.293524174    -0.125346371      0.353392736    -0.468784972      0.353392835    -0.468785638      0.292759174    -0.124590037
2.458                0.294572785    -0.125402081      0.352142535    -0.469357514       0.35214263    -0.469358177      0.293808921    -0.124645392
2.4594               0.295619526    -0.125463576      0.350891781    -0.469923956      0.350891872    -0.469924616      0.294856799    -0.124706541
2.4608               0.296664376    -0.125530835      0.349640507    -0.470484312      0.349640595     -0.47048497      0.295902785     -0.12477346
2.4622               0.297707316    -0.125603835      0.348388749    -0.471038597      0.348388833    -0.471039251      0.296946862    -0.124846129
2.4636               0.298748325    -0.125682553       0.34713654    -0.471586824      0.347136621    -0.471587475      0.297989008    -0.124924525
2.465                0.299787386    -0.125766968      0.345883915    -0.472129008      0.345883993    -0.472129656      0.299029205    -0.125008624
2.4664               0.300824478    -0.125857056      0.344630907    -0.472665164      0.344630981    -0.472665809      0.300067433    -0.125098406
2.4678               0.301859582    -0.125952796      0.343377549    -0.473195307       0.34337762    -0.473195948      0.301103674    -0.125193847
2.4692               0.302892679    -0.126054164      0.342123875    -0.473719452      0.342123943    -0.473720089      0.302137907    -0.125294925
2.4706               0.303923752     -0.12616114      0.340869917    -0.474237614      0.340869982    -0.474238247      0.303170116    -0.125401618
2.472                0.304952781    -0.126273699      0.339615708    -0.474749809      0.339615769    -0.474750438       0.30420028    -0.125513904
2.4734               0.305979748    -0.126391822      0.338361279    -0.475256052      0.338361337    -0.475256677      0.305228382    -0.125631761
2.4748               0.307004635    -0.126515484      0.337106663    -0.475756359      0.337106718     -0.47575698      0.306254404    -0.125755166
2.4762               0.308027424    -0.126644665      0.335851892    -0.476250746      0.335851943    -0.476251363      0.307278328    -0.125884097
2.4776               0.309048098    -0.126779341      0.334596996     -0.47673923      0.334597045    -0.476739842      0.308300135    -0.126018533
2.479                0.310066638    -0.126919492      0.333342006    -0.477221826      0.333342052    -0.477222433      0.309319809     -0.12615845
2.4804               0.311083028    -0.127065094      0.332086955     -0.47769855      0.332086998    -0.477699153      0.310337332    -0.126303828
2.4818               0.312097251    -0.127216126      0.330831871    -0.478169421      0.330831911    -0.478170019      0.311352686    -0.126454644
2.4832               0.313109288    -0.127372567      0.329576785    -0.478634453      0.329576823    -0.478635046      0.312365855    -0.126610877
2.4846               0.314119124    -0.127534393      0.328321728    -0.479093665      0.328321762    -0.479094253      0.313376821    -0.126772504
2.486                0.315126742    -0.127701584      0.327066728    -0.479547072      0.327066759    -0.479547655      0.314385569    -0.126939503
2.4874               0.316132125    -0.127874118      0.325811815    -0.479994693      0.325811844     -0.47999527      0.315392081    -0.127111854
2.4888               0.317135257    -0.128051972      0.324557018    -0.480436544      0.324557044    -0.480437116      0.316396341    -0.127289534
2.4902               0.318136122    -0.128235125      0.323302366    -0.480872643       0.32330239    -0.480873209      0.317398333    -0.127472521
2.4916               0.319134703    -0.128423556      0.322047888    -0.481303006      0.322047909    -0.481303567      0.318398041    -0.127660794
2.493                0.320130986    -0.128617242      0.320793611    -0.481727653      0.320793629    -0.481728208      0.319395449    -0.127854332
2.4944               0.321124953    -0.128816163      0.319539563      -0.4821466      0.319539579    -0.482147149       0.32039054    -0.128053112
2.4958               0.322116591    -0.129020297      0.318285773    -0.482559866      0.318285787    -0.482560409      0.321383301    -0.128257113
2.4972               0.323105883    -0.129229622      0.317032267    -0.482967468      0.317032278    -0.482968005      0.322373714    -0.128466314
2.4986               0.324092813    -0.129444117      0.315779073    -0.483369424      0.315779082    -0.483369954      0.323361766    -0.128680694
2.5                  0.325077369    -0.129663761      0.314526217    -0.483765753      0.314526224    -0.483766277       0.32434744    -0.128900231
2.5014               0.326059533    -0.129888532      0.313273727    -0.484156472      0.313273731    -0.484156989      0.325330722    -0.129124903
2.5028               0.327039291    -0.130118409      0.312021627      -0.4845416       0.31202163    -0.484542111      0.326311598     -0.12935469
2.5042                0.32801663    -0.130353371      0.310769945    -0.484921155      0.310769945    -0.484921659      0.327290052    -0.129589571
2.5056               0.328991534    -0.130593396      0.309518706    -0.485295156      0.309518704    -0.485295654      0.328266069    -0.129829523
2.507                0.329963989    -0.130838465      0.308267935    -0.485663622      0.308267931    -0.485664112      0.329239637    -0.130074527
2.5084               0.330933982    -0.131088554      0.307017658     -0.48602657      0.307017652    -0.486027054      0.330210739    -0.130324561
2.5098               0.331901497    -0.131343645      0.305767899     -0.48638402      0.305767891    -0.486384497      0.331179364    -0.130579604
2.5112               0.332866521    -0.131603715      0.304518683    -0.486735991      0.304518674     -0.48673646      0.332145495    -0.130839636
2.5126               0.333829041    -0.131868745      0.303270035    -0.487082501      0.303270023    -0.487082963      0.333109121    -0.131104635
2.514                0.334789043    -0.132138712      0.302021978    -0.487423569      0.302021965    -0.487424023      0.334070226     -0.13137458
2.5154               0.335746513    -0.132413597      0.300774536    -0.487759214      0.300774521    -0.487759661      0.335028798    -0.131649452
2.5168               0.336701438    -0.132693378      0.299527733    -0.488089455      0.299527717    -0.488089895      0.335984823    -0.131929228
2.5182               0.337653805    -0.132978035      0.298281593    -0.488414312      0.298281575    -0.488414743      0.336938289     -0.13221389
2.5196               0.338603602    -0.133267548      0.297036137    -0.488733803      0.297036118    -0.488734226      0.337889181    -0.132503415
2.521                0.339550814    -0.133561896      0.295791389    -0.489047947      0.295791369    -0.489048363      0.338837487    -0.132797784
2.5224               0.340495429    -0.133861058      0.294547372    -0.489356764       0.29454735    -0.489357172      0.339783195    -0.133096976
2.5238               0.341437435    -0.134165014      0.293304107    -0.489660273      0.293304084    -0.489660673      0.340726291     -0.13340097
2.5252                0.34237682    -0.134473744      0.292061617    -0.489958493      0.292061592    -0.489958885      0.341666762    -0.133709747
2.5266                0.34331357    -0.134787228      0.290819923    -0.490251444      0.290819897    -0.490251827      0.342604598    -0.134023286
2.528                0.344247673    -0.135105445      0.289579047    -0.490539145       0.28957902     -0.49053952      0.343539784    -0.134341567
2.5294               0.345179119    -0.135428375      0.288339009    -0.490821615      0.288338981    -0.490821981       0.34447231    -0.134664569
2.5308               0.346107893    -0.135755997      0.287099832    -0.491098873      0.287099803    -0.491099232      0.345402163    -0.134992273
2.5322               0.347033985    -0.136088293      0.285861535     -0.49137094      0.285861505     -0.49137129      0.346329331    -0.135324659
2.5336               0.347957383    -0.136425242      0.284624139    -0.491637835      0.284624107    -0.491638176      0.347253802    -0.135661706
2.535                0.348878075    -0.136766824      0.283387664    -0.491899576      0.283387632    -0.491899908      0.348175564    -0.136003395
2.5364               0.349796049     -0.13711302       0.28215213    -0.492156184      0.282152097    -0.492156508      0.349094607    -0.136349706
2.5378               0.350711295    -0.137463808      0.280917556    -0.492407679      0.280917523    -0.492407993      0.350010918    -0.136700619
2.5392                 0.3516238    -0.137819171      0.279683963    -0.492654078      0.279683929    -0.492654384      0.350924486    -0.137056114
2.5406               0.352533555    -0.138179087       0.27845137    -0.492895403      0.278451335    -0.492895699        0.3518353    -0.137416172
2.542                0.353440547    -0.138543539      0.277219795    -0.493131673      0.277219759     -0.49313196      0.352743349    -0.137780773
2.5434               0.354344765    -0.138912505      0.275989256    -0.493362906       0.27598922    -0.493363184      0.353648622    -0.138149898
2.5448                 0.3552462    -0.139285966      0.274759774    -0.493589123      0.274759737    -0.493589392      0.354551108    -0.138523527
2.5462                0.35614484    -0.139663904      0.273531365    -0.493810344      0.273531328    -0.493810603      0.355450796     -0.13890164
2.5476               0.357040674    -0.140046298      0.272304048    -0.494026587      0.272304011    -0.494026836      0.356347676    -0.139284219
2.549                0.357933693     -0.14043313       0.27107784    -0.494237872      0.271077803    -0.494238112      0.357241736    -0.139671244
2.5504               0.358823885    -0.140824381       0.26985276    -0.494444219      0.269852722    -0.494444449      0.358132967    -0.140062696
2.5518                0.35971124     -0.14122003      0.268628824    -0.494645647      0.268628786    -0.494645868      0.359021358    -0.140458555
2.5532               0.360595748    -0.141620059      0.267406049    -0.494842176      0.267406011    -0.494842387      0.359906899    -0.140858803
2.5546                 0.3614774    -0.142024449      0.266184453    -0.495033825      0.266184415    -0.495034026       0.36078958    -0.141263421
2.556                0.362356184    -0.142433182      0.264964052    -0.495220613      0.264964014    -0.495220804       0.36166939    -0.141672389
2.5574               0.363232091    -0.142846237      0.263744862    -0.495402561      0.263744824    -0.495402742       0.36254632    -0.142085689
2.5588               0.364105112    -0.143263597        0.2625269    -0.495579686      0.262526862    -0.495579857       0.36342036    -0.142503301
2.5602               0.364975236    -0.143685242      0.261310181     -0.49575201      0.261310143     -0.49575217      0.364291499    -0.142925208
2.5616               0.365842454    -0.144111155      0.260094721     -0.49591955      0.260094684      -0.4959197       0.36515973    -0.143351391
2.563                0.366706757    -0.144541315      0.258880537    -0.496082327        0.2588805    -0.496082467      0.366025041     -0.14378183
2.5644               0.367568135    -0.144975705      0.257667642    -0.496240359      0.257667606    -0.496240489      0.366887423    -0.144216507
2.5658               0.368426578    -0.145414306      0.256456053    -0.496393666      0.256456017    -0.496393785      0.367746867    -0.144655404
2.5672               0.369282078      -0.1458571      0.255245783    -0.496542267      0.255245748    -0.496542376      0.368603364    -0.145098502
2.5686               0.370134624    -0.146304068      0.254036849    -0.496686181      0.254036814     -0.49668628      0.369456904    -0.145545782
2.57                 0.370984209    -0.146755192      0.252829264    -0.496825428      0.252829229    -0.496825516      0.370307479    -0.145997228
2.5714               0.371830824    -0.147210454      0.251623042    -0.496960026      0.251623008    -0.496960103      0.371155078    -0.146452819
2.5728               0.372674458    -0.147669835      0.250418198    -0.497089994      0.250418165    -0.497090061      0.371999694    -0.146912539
2.5742               0.373515104    -0.148133318      0.249214746    -0.497215352      0.249214713    -0.497215408      0.372841318    -0.147376368
2.5756               0.374352753    -0.148600884      0.248012698    -0.497336119      0.248012667    -0.497336163       0.37367994     -0.14784429
2.577                0.375187396    -0.149072515       0.24681207    -0.497452312      0.246812039    -0.497452346      0.374515552    -0.148316285
2.5784               0.376019024    -0.149548194      0.245612873    -0.497563952      0.245612843    -0.497563975      0.375348146    -0.148792336
2.5798                0.37684763    -0.150027903      0.244415121    -0.497671057      0.244415092    -0.497671068      0.376177712    -0.149272424
2.5812               0.377673204    -0.150511623      0.243218827    -0.497773645      0.243218799    -0.497773646      0.377004243    -0.149756534
2.5826               0.378495739    -0.150999337      0.242024004    -0.497871736      0.242023977    -0.497871725       0.37782773    -0.150244645
2.584                0.379315225    -0.151491027      0.240830664    -0.497965347      0.240830638    -0.497965325      0.378648164    -0.150736741
2.5854               0.380131656    -0.151986676       0.23963882    -0.498054498      0.239638795    -0.498054465      0.379465538    -0.151232805
2.5868               0.380945022    -0.152486266      0.238448483    -0.498139208      0.238448459    -0.498139163      0.380279843    -0.151732818
2.5882               0.381755316     -0.15298978      0.237259666    -0.498219494      0.237259643    -0.498219438      0.381091072    -0.152236763
2.5896                0.38256253    -0.153497201       0.23607238    -0.498295374      0.236072359    -0.498295307      0.381899215    -0.152744622
2.591                0.383366656     -0.15400851      0.234886637    -0.498366868      0.234886617     -0.49836679      0.382704266    -0.153256379
2.5924               0.384167686     -0.15452369      0.233702449    -0.498433994      0.233702431    -0.498433904      0.383506217    -0.153772016
2.5938               0.384965613    -0.155042725      0.232519826    -0.498496769       0.23251981    -0.498496668      0.384305059    -0.154291515
2.5952               0.385760428    -0.155565597      0.231338781    -0.498555212      0.231338765    -0.498555099      0.385100785     -0.15481486
2.5966               0.386552125    -0.156092289      0.230159323    -0.498609342      0.230159309    -0.498609216      0.385893388    -0.155342033
2.598                0.387340695    -0.156622785      0.228981464    -0.498659174      0.228981452    -0.498659038      0.386682859    -0.155873018
2.5994               0.388126131    -0.157157066      0.227805214    -0.498704729      0.227805203    -0.498704581      0.387469191    -0.156407796
2.6008               0.388908427    -0.157695116      0.226630583    -0.498746024      0.226630574    -0.498745863      0.388252377    -0.156946353
2.6022               0.389687573    -0.158236919      0.225457583    -0.498783076      0.225457576    -0.498782903       0.38903241    -0.157488669
2.6036               0.390463564    -0.158782457      0.224286222    -0.498815903      0.224286217    -0.498815718      0.389809281    -0.158034729
2.605                0.391236392    -0.159331713      0.223116512    -0.498844522      0.223116508    -0.498844326      0.390582985    -0.158584517
2.6064               0.392006049    -0.159884672      0.221948461    -0.498868952      0.221948459    -0.498868744      0.391353512    -0.159138014
2.6078                0.39277253    -0.160441316       0.22078208     -0.49888921       0.22078208     -0.49888899      0.392120858    -0.159695205
2.6092               0.393535825    -0.161001629      0.219617378    -0.498905313       0.21961738    -0.498905081      0.392885014    -0.160256073
2.6106                0.39429593    -0.161565594      0.218454364    -0.498917278      0.218454368    -0.498917034      0.393645973    -0.160820601
2.612                0.395052837    -0.162133195      0.217293047    -0.498925124      0.217293054    -0.498924867      0.394403728    -0.161388774
2.6134               0.395806538    -0.162704416      0.216133438    -0.498928866      0.216133446    -0.498928596      0.395158274    -0.161960574
2.6148               0.396557028     -0.16327924      0.214975544    -0.498928521      0.214975554     -0.49892824      0.395909601    -0.162535985
2.6162               0.397304299     -0.16385765      0.213819374    -0.498924108      0.213819386    -0.498923814      0.396657705    -0.163114992
2.6176               0.398048345    -0.164439632      0.212664937    -0.498915643      0.212664952    -0.498915336      0.397402578    -0.163697577
2.619                0.398789159    -0.165025168      0.211512242    -0.498903142      0.211512259    -0.498902823      0.398144213    -0.164283725
2.6204               0.399526735    -0.165614242      0.210361296    -0.498886622      0.210361316    -0.498886291      0.398882604    -0.164873419
2.6218               0.400261065    -0.166206839      0.209212109    -0.498866101      0.209212131    -0.498865757      0.399617744    -0.165466644
2.6232               0.400992144    -0.166802943      0.208064689    -0.498841593      0.208064713    -0.498841237      0.400349627    -0.166063383
2.6246               0.401719966    -0.167402537      0.206919042    -0.498813117      0.206919069    -0.498812748      0.401078246    -0.166663621
2.626                0.402444523    -0.168005606      0.205775178    -0.498780688      0.205775207    -0.498780307      0.401803595    -0.167267342
2.6274               0.403165809    -0.168612134      0.204633103    -0.498744323      0.204633135    -0.498743929      0.402525668    -0.167874529
2.6288               0.403883819    -0.169222105      0.203492826    -0.498704038       0.20349286    -0.498703631      0.403244457    -0.168485168
2.6302               0.404598545    -0.169835504      0.202354354    -0.498659849      0.202354391    -0.498659429      0.403959958    -0.169099242
2.6316               0.405309982    -0.170452314      0.201217695    -0.498611771      0.201217734    -0.498611338      0.404672162    -0.169716736
2.633                0.406018124    -0.171072521      0.200082855    -0.498559822      0.200082897    -0.498559376      0.405381066    -0.170337634
2.6344               0.406722964    -0.171696109      0.198949842    -0.498504016      0.198949887    -0.498503557      0.406086661    -0.170961921
2.6358               0.407424497    -0.172323063      0.197818663     -0.49844437      0.197818711    -0.498443898      0.406788943    -0.171589581
2.6372               0.408122716    -0.172953366      0.196689325    -0.498380898      0.196689376    -0.498380414      0.407487905    -0.172220599
2.6386               0.408817615    -0.173587004      0.195561835    -0.498313618      0.195561888     -0.49831312      0.408183541    -0.172854959
2.64                 0.409509189    -0.174223961      0.194436199    -0.498242544      0.194436255    -0.498242033      0.408875845    -0.173492646
2.6414               0.410197432    -0.174864222      0.193312424    -0.498167691      0.193312483    -0.498167167      0.409564811    -0.174133645
2.6428               0.410882337    -0.175507773      0.192190517    -0.498089075      0.192190578    -0.498088538      0.410250434    -0.174777941
2.6442               0.411563899    -0.176154597      0.191070483    -0.498006711      0.191070548     -0.49800616      0.410932706    -0.175425519
2.6456               0.412242113     -0.17680468       0.18995233    -0.497920614      0.189952398     -0.49792005      0.411611624    -0.176076362
2.647                0.412916972    -0.177458007      0.188836064    -0.497830799      0.188836134    -0.497830222       0.41228718    -0.176730457
2.6484               0.413588471    -0.178114562       0.18772169    -0.497737281      0.187721763    -0.497736691       0.41295937    -0.177387789
2.6498               0.414256604    -0.178774331      0.186609215    -0.497640075      0.186609291    -0.497639471      0.413628186    -0.178048341
2.6512               0.414921365      -0.1794373      0.185498644    -0.497539195      0.185498724    -0.497538578      0.414293625    -0.178712101
2.6526                0.41558275    -0.180103452      0.184389984    -0.497434656      0.184390067    -0.497434026       0.41495568    -0.179379052
2.654                0.416240752    -0.180772774      0.183283241    -0.497326474      0.183283327     -0.49732583      0.415614345     -0.18004918
2.6554               0.416895365     -0.18144525      0.182178419    -0.497214661      0.182178508    -0.497214003      0.416269615     -0.18072247
2.6568               0.417546586    -0.182120867      0.181075525    -0.497099232      0.181075617    -0.497098561      0.416921484    -0.181398907
2.6582               0.418194407    -0.182799609      0.179974564    -0.496980202       0.17997466    -0.496979518      0.417569948    -0.182078478
2.6596               0.418838823    -0.183481462      0.178875542    -0.496857585      0.178875641    -0.496856887         0.418215    -0.182761166
2.661                 0.41947983    -0.184166411      0.177778464    -0.496731395      0.177778566    -0.496730683      0.418856635    -0.183446959
2.6624               0.420117422    -0.184854442      0.176683335    -0.496601645       0.17668344     -0.49660092      0.419494847     -0.18413584
2.6638               0.420751593     -0.18554554       0.17559016     -0.49646835      0.175590269    -0.496467611      0.420129632    -0.184827797
2.6652               0.421382339    -0.186239692      0.174498945    -0.496331524      0.174499058    -0.496330771      0.420760984    -0.185522814
2.6666               0.422009653    -0.186936883      0.173409695    -0.496191179      0.173409811    -0.496190412      0.421388898    -0.186220877
2.668                0.422633531    -0.187637098      0.172322415     -0.49604733      0.172322534    -0.496046549      0.422013367    -0.186921971
2.6694               0.423253968    -0.188340323      0.171237109     -0.49589999      0.171237232    -0.495899195      0.422634388    -0.187626083
2.6708               0.423870957    -0.189046544      0.170153783    -0.495749172      0.170153909    -0.495748364      0.423251955    -0.188333199
2.6722               0.424484495    -0.189755748      0.169072441     -0.49559489      0.169072571    -0.495594068      0.423866062    -0.189043304
2.6736               0.425094576    -0.190467919      0.167993089    -0.495437157      0.167993222    -0.495436321      0.424476705    -0.189756383
2.675                0.425701195    -0.191183045      0.166915731    -0.495275986      0.166915868    -0.495275135      0.425083879    -0.190472424
2.6764               0.426304347     -0.19190111      0.165840371     -0.49511139      0.165840511    -0.495110525      0.425687577    -0.191191412
2.6778               0.426904027    -0.192622101      0.164767014    -0.494943382      0.164767158    -0.494942503      0.426287796    -0.191913333
2.6792               0.427500229    -0.193346004      0.163695665    -0.494771974      0.163695813    -0.494771081      0.426884529    -0.192638172
2.6806                0.42809295    -0.194072806      0.162626328     -0.49459718       0.16262648    -0.494596272      0.427477773    -0.193365918
2.682                0.428682183    -0.194802492      0.161559008    -0.494419011      0.161559163     -0.49441809      0.428067522    -0.194096554
2.6834               0.429267924    -0.195535048      0.160493708    -0.494237482      0.160493868    -0.494236546       0.42865377    -0.194830068
2.6848               0.429850167    -0.196270462      0.159430434    -0.494052603      0.159430597    -0.494051653      0.429236514    -0.195566446
2.6862               0.430428909    -0.197008718       0.15836919    -0.493864387      0.158369357    -0.493863423      0.429815748    -0.196305673
2.6876               0.431004144    -0.197749805       0.15730998    -0.493672847      0.157310151    -0.493671869      0.430391467    -0.197047738
2.689                0.431575867    -0.198493707      0.156252808    -0.493477995      0.156252982    -0.493477002      0.430963666    -0.197792625
2.6904               0.432144073    -0.199240411      0.155197678    -0.493279843      0.155197856    -0.493278835       0.43153234    -0.198540321
2.6918               0.432708758    -0.199989905      0.154144594    -0.493078402      0.154144777     -0.49307738      0.432097484    -0.199290813
2.6932               0.433269917    -0.200742174      0.153093561    -0.492873685      0.153093748    -0.492872648      0.432659095    -0.200044087
2.6946               0.433827545    -0.201497205      0.152044583    -0.492665703      0.152044773    -0.492664652      0.433217165     -0.20080013
2.696                0.434381636    -0.202254985      0.150997663    -0.492454469      0.150997858    -0.492453403      0.433771692    -0.201558928
2.6974               0.434932187      -0.2030155      0.149952806    -0.492239993      0.149953005    -0.492238912       0.43432267    -0.202320467
2.6988               0.435479193    -0.203778737      0.148910016    -0.492022287      0.148910218    -0.492021192      0.434870094    -0.203084736
2.7002               0.436022648    -0.204544682      0.147869296    -0.491801364      0.147869502    -0.491800254      0.435413959    -0.203851719
2.7016               0.436562549    -0.205313323       0.14683065    -0.491577233      0.146830861    -0.491576109      0.435954261    -0.204621405
2.703                 0.43709889    -0.206084646      0.145794083    -0.491349907      0.145794298    -0.491348767      0.436490996    -0.205393779
2.7044               0.437631667    -0.206858639      0.144759598    -0.491119396      0.144759817    -0.491118242      0.437024157    -0.206168829
2.7058               0.438160875    -0.207635287      0.143727199    -0.490885712      0.143727422    -0.490884543      0.437553741    -0.206946541
2.7072               0.438686509    -0.208414578       0.14269689    -0.490648865      0.142697117    -0.490647682      0.438079743    -0.207726903
2.7086               0.439208565    -0.209196499      0.141668674    -0.490408868      0.141668906    -0.490407669      0.438602158      -0.2085099
2.71                 0.439727039    -0.209981036      0.140642556    -0.490165729      0.140642792    -0.490164515      0.439120981    -0.209295521
2.7114               0.440241925    -0.210768178      0.139618539    -0.489919461      0.139618779    -0.489918232      0.439636209    -0.210083751
2.7128               0.440753218     -0.21155791      0.138596627    -0.489670074      0.138596871     -0.48966883      0.440147835    -0.210874579
2.7142               0.441260916     -0.21235022      0.137576823    -0.489417578      0.137577072    -0.489416319      0.440655856    -0.211667991
2.7156               0.441765012    -0.213145095      0.136559132    -0.489161984      0.136559385     -0.48916071      0.441160267    -0.212463974
2.717                0.442265502    -0.213942523      0.135543557    -0.488903302      0.135543814    -0.488902013      0.441661063    -0.213262515
2.7184               0.442762382    -0.214742489      0.134530102    -0.488641544      0.134530363    -0.488640239       0.44215824    -0.214063602
2.7198               0.443255646    -0.215544983       0.13351877    -0.488376718      0.133519036    -0.488375398      0.442651793    -0.214867222
2.7212               0.443745292     -0.21634999      0.132509565    -0.488108836      0.132509835    -0.488107501      0.443141718    -0.215673362
2.7226               0.444231313    -0.217157498      0.131502491    -0.487837907      0.131502766    -0.487836557      0.443628009    -0.216482008
2.724                0.444713706    -0.217967495      0.130497551    -0.487563941       0.13049783    -0.487562576      0.444110663    -0.217293149
2.7254               0.445192466    -0.218779968      0.129494749    -0.487286949      0.129495033    -0.487285568      0.444589675    -0.218106772
2.7268               0.445667589    -0.219594904      0.128494089     -0.48700694      0.128494378    -0.487005544       0.44506504    -0.218922864
2.7282               0.446139069     -0.22041229      0.127495575    -0.486723925      0.127495868    -0.486722513      0.445536754    -0.219741412
2.7296               0.446606903    -0.221232114      0.126499209    -0.486437912      0.126499507    -0.486436485      0.446004812    -0.220562404
2.731                0.447071086    -0.222054364      0.125504997    -0.486148912      0.125505299    -0.486147469       0.44646921    -0.221385828
2.7324               0.447531614    -0.222879027       0.12451294    -0.485856934      0.124513247    -0.485855476      0.446929943     -0.22221167
2.7338               0.447988481     -0.22370609      0.123523044    -0.485561988      0.123523356    -0.485560514      0.447387007    -0.223039918
2.7352               0.448441685    -0.224535542      0.122535311    -0.485264083      0.122535628    -0.485262594      0.447840397     -0.22387056
2.7366               0.448891219    -0.225367369      0.121549746    -0.484963229      0.121550067    -0.484961724      0.448290109    -0.224703584
2.738                 0.44933708    -0.226201559      0.120566352    -0.484659434      0.120566678    -0.484657914      0.448736138    -0.225538976
2.7394               0.449779264      -0.2270381      0.119585132    -0.484352709      0.119585463    -0.484351173       0.44917848    -0.226376725
2.7408               0.450217765     -0.22787698      0.118606091    -0.484043063      0.118606427    -0.484041511       0.44961713    -0.227216817
2.7422                0.45065258    -0.228718186      0.117629232    -0.483730504      0.117629573    -0.483728936      0.450052084    -0.228059242
2.7436               0.451083704    -0.229561705      0.116654559    -0.483415041      0.116654905    -0.483413458      0.450483337    -0.228903985
2.745                0.451511132    -0.230407527      0.115682076    -0.483096685      0.115682426    -0.483095086      0.450910886    -0.229751036
2.7464               0.451934861    -0.231255637      0.114711786    -0.482775443      0.114712141    -0.482773828      0.451334724    -0.230600381
2.7478               0.452354885    -0.232106025      0.113743693    -0.482451324      0.113744053    -0.482449693      0.451754849    -0.231452009
2.7492               0.452771201    -0.232958678      0.112777801    -0.482124338      0.112778166    -0.482122692      0.452171255    -0.232305908
2.7506               0.453183804    -0.233813584      0.111814113    -0.481794493      0.111814484    -0.481792831      0.452583939    -0.233162064
2.752                0.453592689     -0.23467073      0.110852634    -0.481461798       0.11085301     -0.48146012      0.452992895    -0.234020466
2.7534               0.453997853    -0.235530105      0.109893368    -0.481126262      0.109893748    -0.481124567      0.453398119    -0.234881102
2.7548                0.45439929    -0.236391696      0.108936317    -0.480787893      0.108936703    -0.480786182      0.453799607     -0.23574396
2.7562               0.454796996    -0.237255492      0.107981487    -0.480446699      0.107981878    -0.480444972      0.454197355    -0.236609026
2.7576               0.455190968     -0.23812148      0.107028881     -0.48010269      0.107029277    -0.480100947      0.454591357    -0.237476291
2.759                  0.4555812    -0.238989648      0.106078502    -0.479755873      0.106078904    -0.479754114       0.45498161     -0.23834574
2.7604               0.455967688    -0.239859985      0.105130356    -0.479406257      0.105130762    -0.479404482      0.455368109    -0.239217363
2.7618               0.456350428    -0.240732477      0.104184445    -0.479053851      0.104184856     -0.47905206       0.45575085    -0.240091147
2.7632               0.456729416    -0.241607114      0.103240773    -0.478698663       0.10324119    -0.478696855      0.456129828     -0.24096708
2.7646               0.457104646    -0.242483883      0.102299346      -0.4783407      0.102299768    -0.478338876      0.456505038     -0.24184515
2.766                0.457476116    -0.243362772      0.101360166    -0.477979972      0.101360594    -0.477978131      0.456876478    -0.242725345
2.7674               0.457843819     -0.24424377      0.100423238    -0.477616486      0.100423672    -0.477614629      0.457244141    -0.243607653
2.7688               0.458207752    -0.245126864     0.0994885665     -0.47725025     0.0994890053    -0.477248377      0.457608024    -0.244492063
2.7702               0.458567911    -0.246012043     0.0985561547    -0.476881273      0.098556599    -0.476879384      0.457968122    -0.245378561
2.7716               0.458924291    -0.246899294     0.0976260071    -0.476509563     0.0976264569    -0.476507657       0.45832443    -0.246267137
2.773                0.459276888    -0.247788607     0.0966981279    -0.476135127     0.0966985834    -0.476133205      0.458676945    -0.247157779
2.7744               0.459625697    -0.248679968     0.0957725213    -0.475757974     0.0957729824    -0.475756036      0.459025662    -0.248050474
2.7758               0.459970714    -0.249573366     0.0948491916    -0.475378112     0.0948496584    -0.475376157      0.459370576    -0.248945211
2.7772               0.460311935     -0.25046879     0.0939281431    -0.474995547     0.0939286155    -0.474993576      0.459711684    -0.249841977
2.7786               0.460649354    -0.251366227       0.09300938    -0.474610289     0.0930098582    -0.474608301       0.46004898    -0.250740761
2.78                 0.460982969    -0.252265666     0.0920929067    -0.474222345     0.0920933906    -0.474220341       0.46038246    -0.251641552
2.7814               0.461312774    -0.253167095     0.0911787275    -0.473831723     0.0911792173    -0.473829702       0.46071212    -0.252544337
2.7828               0.461638765    -0.254070502      0.090266847    -0.473438431     0.0902673426    -0.473436393      0.461037955    -0.253449104
2.7842               0.461960937    -0.254975876     0.0893572695    -0.473042475      0.089357771    -0.473040421      0.461359961    -0.254355842
2.7856               0.462279287    -0.255883204     0.0884499995    -0.472643865     0.0884505069    -0.472641794      0.461678134    -0.255264539
2.787                 0.46259381    -0.256792475     0.0875450415    -0.472242608     0.0875455549     -0.47224052      0.461992469    -0.256175183
2.7884               0.462904501    -0.257703677     0.0866424001     -0.47183871     0.0866429196    -0.471836606      0.462302962    -0.257087763
2.7898               0.463211356    -0.258616799     0.0857420799    -0.471432181     0.0857426054     -0.47143006      0.462609607    -0.258002266
2.7912               0.463514371    -0.259531829     0.0848440855    -0.471023027     0.0848446172    -0.471020889      0.462912402    -0.258918681
2.7926               0.463813541    -0.260448755     0.0839484216    -0.470611256     0.0839489594    -0.470609102      0.463211341    -0.259836996
2.794                0.464108862    -0.261367565     0.0830550929    -0.470196876     0.0830556369    -0.470194705      0.463506419    -0.260757199
2.7954               0.464400329    -0.262288248     0.0821641042    -0.469779894     0.0821646544    -0.469777706      0.463797633    -0.261679279
2.7968               0.464687938    -0.263210792     0.0812754601    -0.469360318     0.0812760167    -0.469358113      0.464084978    -0.262603224
2.7982               0.464971685    -0.264135186     0.0803891657    -0.468938155     0.0803897285    -0.468935933       0.46436845    -0.263529023
2.7996               0.465251565    -0.265061417     0.0795052256    -0.468513412     0.0795057949    -0.468511174      0.464648044    -0.264456663
2.801                0.465527573    -0.265989475     0.0786236449    -0.468086098     0.0786242206    -0.468083843      0.464923755    -0.265386133
2.8024               0.465799706    -0.266919347     0.0777444284    -0.467656219     0.0777450106    -0.467653947       0.46519558    -0.266317421
2.8038               0.466067959    -0.267851023     0.0768675813    -0.467223783       0.07686817    -0.467221494      0.465463513    -0.267250516
2.8052               0.466332327    -0.268784489     0.0759931084    -0.466788797     0.0759937037    -0.466786492       0.46572755    -0.268185406
2.8066               0.466592806    -0.269719735     0.0751210149     -0.46635127     0.0751216168    -0.466348947      0.465987687    -0.269122078
2.808                0.466849391    -0.270656749     0.0742513058    -0.465911207     0.0742519144    -0.465908868       0.46624392    -0.270060523
2.8094               0.467102079     -0.27159552     0.0733839865    -0.465468617     0.0733846018    -0.465466261      0.466496243    -0.271000727
2.8108               0.467350864    -0.272536036     0.0725190619    -0.465023507      0.072519684    -0.465021134      0.466744653     -0.27194268
2.8122               0.467595743    -0.273478284     0.0716565374    -0.464575885     0.0716571664    -0.464573495      0.466989144    -0.272886369
2.8136                0.46783671    -0.274422255     0.0707964183    -0.464125757     0.0707970542    -0.464123351      0.467229713    -0.273831784
2.815                0.468073762    -0.275367936     0.0699387099    -0.463673132     0.0699393527    -0.463670708      0.467466355    -0.274778911
2.8164               0.468306893    -0.276315315     0.0690834175    -0.463218016     0.0690840673    -0.463215576      0.467699065    -0.275727741
2.8178               0.468536099     -0.27726438     0.0682305466    -0.462760417     0.0682312035     -0.46275796      0.467927839     -0.27667826
2.8192               0.468761377    -0.278215122     0.0673801027    -0.462300343     0.0673807666    -0.462297869      0.468152672    -0.277630458
2.82                 0.468888341     -0.27875915     0.0668952264    -0.462036334     0.0668958945    -0.462033851      0.468279377     -0.27817532
2.8206               0.468982721    -0.279167527     0.0665320911      -0.4618378     0.0665327622    -0.461835309       0.46837356    -0.278584323
2.822                0.469200126    -0.280121584     0.0656865175    -0.461372797     0.0656871958    -0.461370288      0.468590498    -0.279539842
2.8234               0.469413589    -0.281077281     0.0648433875     -0.46090534      0.064844073    -0.460902815      0.468803483    -0.280497006
2.8248               0.469623105    -0.282034608     0.0640027066    -0.460435437     0.0640033995    -0.460432895      0.469012508    -0.281455801
2.8262               0.469828669    -0.282993551     0.0631644805    -0.459963095     0.0631651808    -0.459960536       0.46921757    -0.282416216
2.8276               0.470030277    -0.283954101      0.062328715    -0.459488322     0.0623294228    -0.459485747      0.469418665     -0.28337824
2.829                0.470227925    -0.284916245     0.0614954158    -0.459011126     0.0614961311    -0.459008533      0.469615787    -0.284341861
2.8304               0.470421607    -0.285879971     0.0606645887    -0.458531513     0.0606653116    -0.458528904      0.469808932    -0.285307068
2.8318                0.47061132    -0.286845268     0.0598362396    -0.458049491       0.05983697    -0.458046865      0.469998096    -0.286273848
2.8332               0.470797058    -0.287812125     0.0590103742    -0.457565069     0.0590111124    -0.457562426      0.470183274     -0.28724219
2.8346               0.470978818    -0.288780529     0.0581869987    -0.457078252     0.0581877445    -0.457075592      0.470364461    -0.288212082
2.836                0.471156594     -0.28975047     0.0573661188    -0.456589049     0.0573668724    -0.456586373      0.470541654    -0.289183513
2.8374               0.471330383    -0.290721935     0.0565477406    -0.456097468     0.0565485021    -0.456094775      0.470714846    -0.290156471
2.8388               0.471500179    -0.291694913     0.0557318702    -0.455603515     0.0557326397    -0.455600805      0.470884035    -0.291130945
2.8402               0.471665979    -0.292669392     0.0549185137    -0.455107199     0.0549192911    -0.455104473      0.471049214    -0.292106922
2.8416               0.471827777    -0.293645361     0.0541076772    -0.454608527     0.0541084627    -0.454605784      0.471210381    -0.293084391
2.843                0.471985569    -0.294622808     0.0532993668    -0.454107507     0.0533001604    -0.454104747      0.471367529     -0.29406334
2.8444                0.47213935    -0.295601721     0.0524935888    -0.453604146     0.0524943906     -0.45360137      0.471520655    -0.295043759
2.8458               0.472289117    -0.296582089     0.0516903494    -0.453098453     0.0516911594    -0.453095659      0.471669753    -0.296025634
2.8472               0.472434863      -0.2975639     0.0508896549    -0.452590434     0.0508904733    -0.452587624       0.47181482    -0.297008954
2.8486               0.472576585    -0.298547143     0.0500915117    -0.452080098     0.0500923385    -0.452077271      0.471955851    -0.297993708
2.85                 0.472714279    -0.299531805     0.0492959262    -0.451567452     0.0492967613    -0.451564609      0.472092841    -0.298979883
2.8514               0.472847939    -0.300517875     0.0485029046    -0.451052504     0.0485037483    -0.451049644      0.472225785    -0.299967469
2.8528               0.472977561    -0.301505342     0.0477124535    -0.450535262     0.0477133058    -0.450532386      0.472354679    -0.300956453
2.8542                0.47310314    -0.302494193     0.0469245794    -0.450015735     0.0469254403    -0.450012842      0.472479518    -0.301946824
2.8556               0.473224673    -0.303484417     0.0461392888    -0.449493929     0.0461401584     -0.44949102      0.472600297    -0.302938569
2.857                0.473342153    -0.304476002     0.0453565883    -0.448969853     0.0453574666    -0.448966928      0.472717013    -0.303931677
2.8584               0.473455577    -0.305468937     0.0445764843    -0.448443515     0.0445773715    -0.448440574       0.47282966    -0.304926137
2.8598                0.47356494     -0.30646321     0.0437989837    -0.447914923     0.0437998797    -0.447911965      0.472938234    -0.305921936
2.8612               0.473670237    -0.307458808     0.0430240929    -0.447384085      0.043024998    -0.447381111       0.47304273    -0.306919063
2.8626               0.473771464    -0.308455721     0.0422518188    -0.446851009     0.0422527329    -0.446848019      0.473143143    -0.307917505
2.864                0.473868616    -0.309453936     0.0414821681    -0.446315704     0.0414830913    -0.446312698      0.473239469    -0.308917251
2.8654               0.473961688    -0.310453441     0.0407151475    -0.445778177     0.0407160798    -0.445775155      0.473331703     -0.30991829
2.8668               0.474050677    -0.311454226     0.0399507639    -0.445238437     0.0399517054    -0.445235398       0.47341984    -0.310920609
2.8682               0.474135576    -0.312456277      0.039189024    -0.444696492     0.0391899748    -0.444693437      0.473503876    -0.311924196
2.8696               0.474216382    -0.313459584     0.0384299347     -0.44415235     0.0384308949     -0.44414928      0.473583807     -0.31292904
2.871                 0.47429309    -0.314464134     0.0376735029    -0.443606021     0.0376744726    -0.443602935      0.473659627    -0.313935128
2.8724               0.474365695    -0.315469915     0.0369197356    -0.443057512     0.0369207148     -0.44305441      0.473731331    -0.314942449
2.8738               0.474434193    -0.316476916     0.0361686397    -0.442506832     0.0361696284    -0.442503714      0.473798916    -0.315950991
2.8752               0.474498578    -0.317485125     0.0354202221    -0.441953989     0.0354212205    -0.441950856      0.473862376    -0.316960741
2.8766               0.474558847    -0.318494529     0.0346744899    -0.441398993      0.034675498    -0.441395844      0.473921707    -0.317971689
2.878                0.474614995    -0.319505117     0.0339314501    -0.440841851      0.033932468    -0.440838687      0.473976904    -0.318983821
2.8794               0.474667016    -0.320516877     0.0331911098    -0.440282573     0.0331921376    -0.440279393      0.474027962    -0.319997126
2.8808               0.474714907    -0.321529797     0.0324534761    -0.439721168     0.0324545137    -0.439717973      0.474074877    -0.321011591
2.8822               0.474758663    -0.322543865      0.031718556    -0.439157643     0.0317196036    -0.439154433      0.474117644    -0.322027206
2.8836               0.474798278    -0.323559068     0.0309863566    -0.438592009     0.0309874143    -0.438588784      0.474156258    -0.323043957
2.885                0.474833749    -0.324575395     0.0302568852    -0.438024275     0.0302579531    -0.438021034      0.474190715    -0.324061833
2.8864                0.47486507    -0.325592835      0.029530149    -0.437454448      0.029531227    -0.437451192       0.47422101    -0.325080822
2.8878               0.474892237    -0.326611374      0.028806155    -0.436882539     0.0288072433    -0.436879268      0.474247138     -0.32610091
2.8892               0.474915245       -0.327631     0.0280849106    -0.436308556     0.0280860091     -0.43630527      0.474269095    -0.327122088
2.8906                0.47493409    -0.328651703     0.0273664229    -0.435732509     0.0273675318    -0.435729209      0.474286875    -0.328144341
2.892                0.474948767    -0.329673468     0.0266506992    -0.435154407     0.0266518186    -0.435151092      0.474300474    -0.329167658
2.8934               0.474959271    -0.330696285     0.0259377468     -0.43457426     0.0259388767     -0.43457093      0.474309888    -0.330192027
2.8948               0.474965597    -0.331720141     0.0252275729    -0.433992077     0.0252287134    -0.433988732      0.474315111    -0.331217436
2.8962               0.474967741    -0.332745024     0.0245201849    -0.433407867      0.024521336    -0.433404508      0.474316139    -0.332243871
2.8976               0.474965698    -0.333770922       0.02381559     -0.43282164     0.0238167519    -0.432818267      0.474312968    -0.333271322
2.899                0.474959463    -0.334797822     0.0231137956    -0.432233406     0.0231149683    -0.432230019      0.474305592    -0.334299776
2.9004               0.474949032    -0.335825713     0.0224148091    -0.431643174     0.0224159925    -0.431639773      0.474294006     -0.33532922
2.9018                 0.4749344    -0.336854581     0.0217186376    -0.431050954      0.021719832    -0.431047539      0.474278207    -0.336359642
2.9032               0.474915563    -0.337884415     0.0210252887    -0.430456757      0.021026494    -0.430453328      0.474258189    -0.337391029
2.9046               0.474892515    -0.338915202     0.0203347696    -0.429860592      0.020335986    -0.429857149      0.474233948    -0.338423371
2.906                0.474865251    -0.339946931     0.0196470878    -0.429262469     0.0196483152    -0.429259013      0.474205479    -0.339456653
2.9074               0.474833768    -0.340979587     0.0189622505    -0.428662398     0.0189634891    -0.428658928      0.474172777    -0.340490863
2.9088               0.474798061     -0.34201316     0.0182802652     -0.42806039      0.018281515    -0.428056906      0.474135837    -0.341525989
2.9102               0.474758124    -0.343047637     0.0176011392    -0.427456454     0.0176024003    -0.427452958      0.474094655    -0.342562019
2.9116               0.474713953    -0.344083005       0.01692488    -0.426850601     0.0169261524    -0.426847092      0.474049226     -0.34359894
2.913                0.474665544    -0.345119252     0.0162514949    -0.426242842     0.0162527787     -0.42623932      0.473999546     -0.34463674
2.9144               0.474612891    -0.346156365     0.0155809912    -0.425633187     0.0155822865    -0.425629652      0.473945609    -0.345675405
2.9158                0.47455599    -0.347194332     0.0149133764    -0.425021646     0.0149146832    -0.425018098      0.473887411    -0.346714924
2.9172               0.474494836    -0.348233139     0.0142486579    -0.424408231     0.0142499761     -0.42440467      0.473824947    -0.347755283
2.9186               0.474429425    -0.349272776     0.0135868429    -0.423792951     0.0135881728    -0.423789378      0.473758213    -0.348796471
2.92                 0.474359752    -0.350313228     0.0129279389    -0.423175819     0.0129292804    -0.423172233      0.473687203    -0.349838473
2.9214               0.474285812    -0.351354484     0.0122719532    -0.422556844     0.0122733064    -0.422553246      0.473611913    -0.350881279
2.9228               0.474207601     -0.35239653     0.0116188931    -0.421936038     0.0116202581    -0.421932428      0.473532339    -0.351924874
2.9242               0.474125113    -0.353439354      0.010968766    -0.421313412     0.0109701428     -0.42130979      0.473448475    -0.352969246
2.9256               0.474038344    -0.354482943     0.0103215793    -0.420688976     0.0103229679    -0.420685343      0.473360318    -0.354014383
2.927                 0.47394729    -0.355527284    0.00967734013    -0.420062743    0.00967874071    -0.420059099      0.473267861    -0.355060271
2.9284               0.473851946    -0.356572365    0.00903605592    -0.419434724    0.00903746844    -0.419431068      0.473171101    -0.356106897
2.9298               0.473752307    -0.357618173     0.0083977339     -0.41880493    0.00839915842    -0.418801262      0.473070033     -0.35715425
2.9312               0.473648368    -0.358664694    0.00776238135    -0.418173372     0.0077638179    -0.418169693      0.472964652    -0.358202315
2.9326               0.473540124    -0.359711917    0.00713000551    -0.417540062    0.00713145414    -0.417536373      0.472854954     -0.35925108
2.934                0.473427572    -0.360759827     0.0065006136    -0.416905013    0.00650207435    -0.416901313      0.472740933    -0.360300531
2.9354               0.473310707    -0.361808412    0.00587421282    -0.416268235    0.00587568573    -0.416264524      0.472622585    -0.361350657
2.9368               0.473189523    -0.362857659    0.00525081036     -0.41562974    0.00525229547    -0.415626019      0.472499906    -0.362401443
2.9382               0.473064016    -0.363907556    0.00463041338    -0.414989541    0.00463191072     -0.41498581      0.472372891    -0.363452877
2.9396               0.472934181    -0.364958088      0.004013029     -0.41434765     0.0040145386    -0.414343909      0.472241535    -0.364504945
2.941                0.472800015    -0.366009242    0.00339866432    -0.413704078    0.00340018622    -0.413700327      0.472105833    -0.365557634
2.9424               0.472661511    -0.367061007    0.00278732643    -0.413058838    0.00278886066    -0.413055078      0.471965781    -0.366610932
2.9438               0.472518666    -0.368113368    0.00217902235    -0.412411943    0.00218056895    -0.412408173      0.471821374    -0.367664825
2.9452               0.472371475    -0.369166312    0.00157375912    -0.411763404     0.0015753181    -0.411759625      0.471672608    -0.368719299
2.9466               0.472219934    -0.370219826   0.000971543693    -0.411113235   0.000973115086    -0.411109447      0.471519478    -0.369774342
2.948                0.472064036    -0.371273896   0.000372383027    -0.410461447   0.000373966858     -0.41045765      0.471361979    -0.370829939
2.9494               0.471903779    -0.372328511  -0.000223715974    -0.409808054  -0.000222119684    -0.409804248      0.471200107    -0.371886078
2.9508               0.471739158    -0.373383655  -0.000816746442    -0.409153068  -0.000815137672    -0.409149254      0.471033856    -0.372942746
2.9522               0.471570167    -0.374439315   -0.00140670155    -0.408496503   -0.00140508028     -0.40849268      0.470863224    -0.373999928
2.9536               0.471396803    -0.375495479    -0.0019935745     -0.40783837   -0.00199194072     -0.40783454      0.470688204    -0.375057611
2.955                0.471219061    -0.376552133   -0.00257735856    -0.407178684   -0.00257571225    -0.407174846      0.470508792    -0.376115782
2.9564               0.471036935    -0.377609263   -0.00315804701    -0.406517457   -0.00315638816    -0.406513611      0.470324984    -0.377174427
2.9578               0.470850422    -0.378666855   -0.00373563322    -0.405854703   -0.00373396182     -0.40585085      0.470136775    -0.378233532
2.9592               0.470659518    -0.379724897   -0.00431011056    -0.405190435    -0.0043084266    -0.405186574      0.469944161    -0.379293085
2.9606               0.470464216    -0.380783374   -0.00488147247    -0.404524666   -0.00487977595    -0.404520798      0.469747137    -0.380353071
2.962                0.470264514    -0.381842273   -0.00544971246     -0.40385741   -0.00544800337    -0.403853536      0.469545698    -0.381413476
2.9634               0.470060407    -0.382901579   -0.00601482406    -0.403188681    -0.0060131024      -0.4031848      0.469339841    -0.382474287
2.9648               0.469851889    -0.383961281   -0.00657680086    -0.402518491   -0.00657506664    -0.402514604       0.46912956    -0.383535489
2.9662               0.469638957    -0.385021362   -0.00713563653    -0.401846856   -0.00713388975    -0.401842963       0.46891485     -0.38459707
2.9676               0.469421605    -0.386081811   -0.00769132477    -0.401173789   -0.00768956543     -0.40116989      0.468695709    -0.385659015
2.969                0.469199831    -0.387142612   -0.00824385934    -0.400499304   -0.00824208745    -0.400495399       0.46847213     -0.38672131
2.9704               0.468973628    -0.388203752   -0.00879323407    -0.399823414   -0.00879144965    -0.399819504       0.46824411    -0.387783942
2.9718               0.468742993    -0.389265217   -0.00933944286    -0.399146135   -0.00933764592     -0.39914222      0.468011643    -0.388846896
2.9732               0.468507921    -0.390326993   -0.00988247965    -0.398467481   -0.00988067021    -0.398463561      0.467774727    -0.389910158
2.9746               0.468268408    -0.391389066    -0.0104223385    -0.397787465    -0.0104205165     -0.39778354      0.467533355    -0.390973714
2.976                 0.46802445    -0.392451422    -0.0109590134    -0.397106102     -0.010957179    -0.397102173      0.467287525     -0.39203755
2.9774               0.467776041    -0.393514047    -0.0114924986    -0.396423407    -0.0114906517    -0.396419474       0.46703723    -0.393101651
2.9788               0.467523178    -0.394576926    -0.0120227882    -0.395739394     -0.012020929    -0.395735457      0.466782468    -0.394166005
2.9802               0.467265856    -0.395640046    -0.0125498766    -0.395054078     -0.012548005    -0.395050138      0.466523233    -0.395230595
2.9816               0.467004071    -0.396703391    -0.0130737582    -0.394367474    -0.0130718742     -0.39436353      0.466259522    -0.396295409
2.983                0.466737818    -0.397766949    -0.0135944273    -0.393679597     -0.013592531     -0.39367565      0.465991329    -0.397360431
2.9844               0.466467094    -0.398830704    -0.0141118785    -0.392990462    -0.0141099699    -0.392986512      0.465718651    -0.398425648
2.9858               0.466191893    -0.399894642    -0.0146261063    -0.392300083    -0.0146241856     -0.39229613      0.465441484    -0.399491044
2.9872               0.465912212    -0.400958748    -0.0151371056    -0.391608476    -0.0151351726    -0.391604521      0.465159822    -0.400556605
2.9886               0.465628047    -0.402023009    -0.0156448709    -0.390915656    -0.0156429258    -0.390911699      0.464873662    -0.401622318
2.99                 0.465339392    -0.403087409    -0.0161493971    -0.390221638      -0.01614744     -0.39021768      0.464582999    -0.402688166
2.9914               0.465046244    -0.404151935    -0.0166506792    -0.389526439      -0.01664871    -0.389522478       0.46428783    -0.403754136
2.9928               0.464748599    -0.405216571    -0.0171487122    -0.388830072     -0.017146731    -0.388826111      0.463988149    -0.404820212
2.9942               0.464446453    -0.406281302     -0.017643491    -0.388132554     -0.017641498    -0.388128592      0.463683954    -0.405886381
2.9956                 0.4641398    -0.407346115     -0.018135011    -0.387433901    -0.0181330061    -0.387429938      0.463375238    -0.406952627
2.997                0.463828638    -0.408410994    -0.0186232674    -0.386734128    -0.0186212507    -0.386730165         0.463062    -0.408018936
2.9984               0.463512962    -0.409475925    -0.0191082555    -0.386033251    -0.0191062271    -0.386029288      0.462744233    -0.409085292
2.9998               0.463192767    -0.410540892    -0.0195899707    -0.385331286    -0.0195879307    -0.385327323      0.462421935    -0.410151681
3.0012                0.46286805    -0.411605881    -0.0200684087    -0.384628249    -0.0200663572    -0.384624287        0.4620951    -0.411218088
3.0026               0.462538807    -0.412670876    -0.0205435651    -0.383924156    -0.0205415021    -0.383920194      0.461763726    -0.412284497
3.004                0.462205033    -0.413735864    -0.0210154355    -0.383219023    -0.0210133612    -0.383215062      0.461427808    -0.413350895
3.0054               0.461866725    -0.414800828    -0.0214840159    -0.382512865    -0.0214819303    -0.382508906      0.461087341    -0.414417264
3.0068               0.461523878    -0.415865754    -0.0219493022    -0.381805701    -0.0219472054    -0.381801743      0.460742322    -0.415483592
3.0082               0.461176489    -0.416930626    -0.0224112904    -0.381097545    -0.0224091824     -0.38109359      0.460392747    -0.416549861
3.0096               0.460824554     -0.41799543    -0.0228699766    -0.380388415    -0.0228678577    -0.380384462      0.460038612    -0.417616057
3.011                0.460468068     -0.41906015    -0.0233253571    -0.379678326    -0.0233232273    -0.379674376      0.459679913    -0.418682166
3.0124               0.460107027     -0.42012477    -0.0237774282    -0.378967296    -0.0237752876    -0.378963348      0.459316645     -0.41974817
3.0138               0.459741429    -0.421189276    -0.0242261864    -0.378255341    -0.0242240351    -0.378251396      0.458948806    -0.420814055
3.0152               0.459371268    -0.422253652    -0.0246716283    -0.377542477    -0.0246694664    -0.377538536      0.458576391    -0.421879806
3.0166               0.458996542    -0.423317883    -0.0251137505    -0.376828722    -0.0251115782    -0.376824785      0.458199397    -0.422945407
3.018                0.458617246    -0.424381952    -0.0255525497    -0.376114093    -0.0255503672    -0.376110159      0.457817819    -0.424010842
3.0194               0.458233376    -0.425445845     -0.025988023    -0.375398605    -0.0259858303    -0.375394676      0.457431654    -0.425076095
3.0208               0.457844929    -0.426509546    -0.0264201673    -0.374682277    -0.0264179645    -0.374678353      0.457040898    -0.426141152
3.0222               0.457451901     -0.42757304    -0.0268489797    -0.373965125     -0.026846767    -0.373961206      0.456645547    -0.427205997
3.0236               0.457054288    -0.428636309    -0.0272744575    -0.373247166     -0.027272235    -0.373243253      0.456245597    -0.428270612
3.025                0.456652087     -0.42969934     -0.027696598    -0.372528418    -0.0276943659     -0.37252451      0.455841046    -0.429334984
3.0264               0.456245293    -0.430762116    -0.0281153988    -0.371808898    -0.0281131572    -0.371804996      0.455431888    -0.430399096
3.0278               0.455833904    -0.431824621    -0.0285308573    -0.371088623    -0.0285286064    -0.371084727      0.455018122    -0.431462931
3.0292               0.455417916    -0.432886839    -0.0289429713     -0.37036761    -0.0289407112    -0.370363721      0.454599742    -0.432526475
3.0306               0.454997325    -0.433948754    -0.0293517387    -0.369645877    -0.0293494696    -0.369641995      0.454176746    -0.433589711
3.032                0.454572127    -0.435010351    -0.0297571574    -0.368923442    -0.0297548795    -0.368919567       0.45374913    -0.434652622
3.0334                0.45414232    -0.436071612    -0.0301592255    -0.368200321    -0.0301569389    -0.368196454       0.45331689    -0.435715194
3.0348               0.453707899    -0.437132523    -0.0305579412    -0.367476533    -0.0305556461    -0.367472673      0.452880023    -0.436777409
3.0362               0.453268862    -0.438193067    -0.0309533029    -0.366752094    -0.0309509994    -0.366748243      0.452438525    -0.437839251
3.0376               0.452825204    -0.439253227    -0.0313453089    -0.366027023    -0.0313429974    -0.366023181      0.451992394    -0.438900705
3.039                0.452376923    -0.440312988     -0.031733958    -0.365301338    -0.0317316385    -0.365297504      0.451541626    -0.439961753
3.0404               0.451924015    -0.441372332    -0.0321192488    -0.364575056    -0.0321169215    -0.364571231      0.451086217    -0.441022379
3.0418               0.451466476    -0.442431245    -0.0325011802    -0.363848195    -0.0324988453    -0.363844379      0.450626164    -0.442082568
3.0432               0.451004305    -0.443489708    -0.0328797512    -0.363120772    -0.0328774089    -0.363116967      0.450161464    -0.443142301
3.0446               0.450537496    -0.444547706    -0.0332549608    -0.362392806    -0.0332526114    -0.362389011      0.449692113    -0.444201564
3.046                0.450066048    -0.445605222    -0.0336268084    -0.361664315    -0.0336244521    -0.361660531       0.44921811    -0.445260339
3.0474               0.449589957     -0.44666224    -0.0339952933    -0.360935317    -0.0339929302    -0.360931543      0.448739449    -0.446318609
3.0488               0.449109219    -0.447718742    -0.0343604151    -0.360205829    -0.0343580455    -0.360202066      0.448256129    -0.447376358
3.0502               0.448623833    -0.448774713    -0.0347221733    -0.359475869    -0.0347197974    -0.359472119      0.447768146    -0.448433568
3.0516               0.448133794    -0.449830135    -0.0350805679    -0.358745457     -0.035078186    -0.358741718      0.447275497    -0.449490224
3.053                  0.4476391    -0.450884991    -0.0354355987     -0.35801461    -0.0354332109    -0.358010883      0.446778179    -0.450546309
3.0544               0.447139747    -0.451939265    -0.0357872658    -0.357283345    -0.0357848724    -0.357279631      0.446276189    -0.451601804
3.0558               0.446635734    -0.452992939    -0.0361355695    -0.356551682    -0.0361331707     -0.35654798      0.445769525    -0.452656694
3.0572               0.446127057    -0.454045998      -0.03648051    -0.355819638    -0.0364781061    -0.355815949      0.445258183    -0.453710961
3.0586               0.445613713    -0.455098422    -0.0368220879    -0.355087232    -0.0368196791    -0.355083557       0.44474216    -0.454764588
3.06                 0.445095699    -0.456150197    -0.0371603037    -0.354354481    -0.0371578904     -0.35435082      0.444221455    -0.455817558
3.0614               0.444573013    -0.457201303    -0.0374951584    -0.353621405    -0.0374927407    -0.353617758      0.443696063    -0.456869853
3.0628               0.444045651    -0.458251725    -0.0378266527    -0.352888022     -0.037824231    -0.352884389      0.443165983    -0.457921457
3.0642               0.443513613    -0.459301444    -0.0381547879    -0.352154349    -0.0381523623    -0.352150731      0.442631211    -0.458972352
3.0656               0.442976893    -0.460350444    -0.0384795649    -0.351420406    -0.0384771358    -0.351416803      0.442091745    -0.460022521
3.067                0.442435491    -0.461398706    -0.0388009853     -0.35068621     -0.038798553    -0.350682623      0.441547583    -0.461071945
3.0684               0.441889403    -0.462446215    -0.0391190506     -0.34995178    -0.0391166152    -0.349948208      0.440998722    -0.462120609
3.0698               0.441338628    -0.463492951    -0.0394337623    -0.349217134    -0.0394313242    -0.349213579      0.440445159    -0.463168493
3.0712               0.440783162    -0.464538898    -0.0397451222    -0.348482291    -0.0397426818    -0.348478752      0.439886893    -0.464215581
3.0726               0.440223003    -0.465584038    -0.0400531324    -0.347747269    -0.0400506898    -0.347743747       0.43932392    -0.465261855
3.074                0.439658149    -0.466628353    -0.0403577948    -0.347012087    -0.0403553504    -0.347008582      0.438756238    -0.466307297
3.0754               0.439088598    -0.467671826    -0.0406591117    -0.346276763    -0.0406566658    -0.346273275      0.438183846    -0.467351889
3.0768               0.438514347    -0.468714438    -0.0409570855    -0.345541315    -0.0409546384    -0.345537845      0.437606741    -0.468395613
3.0782               0.437935395    -0.469756172    -0.0412517187    -0.344805762    -0.0412492708     -0.34480231       0.43702492    -0.469438452
3.0796               0.437351738     -0.47079701     -0.041543014    -0.344070122    -0.0415405655    -0.344066688      0.436438381    -0.470480387
3.081                0.436763375    -0.471836933    -0.0418309742    -0.343334414    -0.0418285255    -0.343330999      0.435847124    -0.471521401
3.0824               0.436170305    -0.472875925    -0.0421156024    -0.342598656    -0.0421131538     -0.34259526      0.435251144    -0.472561475
3.0838               0.435572524    -0.473913967    -0.0423969015    -0.341862866    -0.0423944533     -0.34185949      0.434650441    -0.473600591
3.0852               0.434970031     -0.47495104    -0.0426748749    -0.341127063    -0.0426724275    -0.341123707      0.434045013    -0.474638731
3.0866               0.434362824    -0.475987127     -0.042949526    -0.340391266    -0.0429470798    -0.340387929      0.433434857    -0.475675877
3.088                0.433750902    -0.477022209    -0.0432208585    -0.339655492    -0.0432184136    -0.339652176      0.432819972    -0.476712011
3.0894               0.433134262    -0.478056268    -0.0434888759    -0.338919761    -0.0434864329    -0.338916465      0.432200357    -0.477747113
3.0908               0.432512903    -0.479089286    -0.0437535822     -0.33818409    -0.0437511414    -0.338180815      0.431576008    -0.478781166
3.0922               0.431886824    -0.480121243    -0.0440149814    -0.337448498    -0.0440125431    -0.337445244      0.430946926    -0.479814152
3.0936               0.431256022    -0.481152123    -0.0442730777    -0.336713003    -0.0442706423    -0.336709771      0.430313108    -0.480846051
3.095                0.430620495    -0.482181905    -0.0445278754    -0.335977623    -0.0445254433    -0.335974413      0.429674552    -0.481876845
3.0964               0.429980244    -0.483210572    -0.0447793789    -0.335242378    -0.0447769505    -0.335239189      0.429031258    -0.482906515
3.0978               0.429335266    -0.484238105     -0.045027593    -0.334507284    -0.0450251686    -0.334504118      0.428383223    -0.483935043
3.0992               0.428685559    -0.485264485    -0.0452725223     -0.33377236    -0.0452701023    -0.333769217      0.427730447     -0.48496241
3.1006               0.428031123    -0.486289694    -0.0455141718    -0.333037625    -0.0455117566    -0.333034505      0.427072928    -0.485988596
3.102                0.427371956    -0.487313712    -0.0457525467    -0.332303097    -0.0457501366         -0.3323      0.426410665    -0.487013584
3.1034               0.426708057    -0.488336521    -0.0459876519    -0.331568794    -0.0459852475     -0.33156572      0.425743657    -0.488037354
3.1048               0.426039425    -0.489358101    -0.0462194931    -0.330834733    -0.0462170947    -0.330831684      0.425071902    -0.489059888
3.1062                0.42536606    -0.490378435    -0.0464480757    -0.330100933    -0.0464456836    -0.330097908        0.4243954    -0.490081165
3.1076               0.424687958    -0.491397502    -0.0466734053    -0.329367413    -0.0466710201    -0.329364413       0.42371415    -0.491101168
3.109                0.424005121    -0.492415283    -0.0468954878     -0.32863419    -0.0468931098    -0.328631214       0.42302815    -0.492119876
3.1104               0.423317548     -0.49343176    -0.0471143291    -0.327901281    -0.0471119588    -0.327898331      0.422337401    -0.493137271
3.1118               0.422625236    -0.494446913    -0.0473299354    -0.327168706    -0.0473275731    -0.327165781        0.4216419    -0.494153333
3.1132               0.421928186    -0.495460723    -0.0475423129    -0.326436482    -0.0475399592    -0.326433582      0.420941648    -0.495168043
3.1146               0.421226397    -0.496473171    -0.0477514681    -0.325704626    -0.0477491232    -0.325701752      0.420236644    -0.496181382
3.116                0.420519869    -0.497484237    -0.0479574074    -0.324973157     -0.047955072    -0.324970309      0.419526887     -0.49719333
3.1174                 0.4198086    -0.498493901    -0.0481601377    -0.324242092     -0.048157812    -0.324239271      0.418812376    -0.498203867
3.1188               0.419092591    -0.499502145    -0.0483596657    -0.323511449    -0.0483573502    -0.323508655      0.418093112    -0.499212975
3.1202                0.41837184    -0.500508949    -0.0485559984    -0.322781246    -0.0485536936    -0.322778478      0.417369094    -0.500220632
3.1216               0.417646349    -0.501514292     -0.048749143      -0.3220515    -0.0487468494    -0.322048759      0.416640321    -0.501226821
3.123                0.416916115    -0.502518156    -0.0489391067    -0.321322228    -0.0489368247    -0.321319515      0.415906794    -0.502231521
3.1244               0.416181141     -0.50352052    -0.0491258971    -0.320593449    -0.0491236271    -0.320590764      0.415168512    -0.503234711
3.1258               0.415441424    -0.504521366    -0.0493095215    -0.319865179    -0.0493072642    -0.319862522      0.414425475    -0.504236374
3.1272               0.414696966    -0.505520672    -0.0494899879    -0.319137437    -0.0494877435    -0.319134808      0.413677684    -0.505236487
3.1286               0.413947765     -0.50651842     -0.049667304    -0.318410238    -0.0496650731    -0.318407638      0.412925137    -0.506235032
3.13                 0.413193824    -0.507514588    -0.0498414777    -0.317683601    -0.0498392608     -0.31768103      0.412167836    -0.507231989
3.1314                0.41243514    -0.508509158    -0.0500125174    -0.316957543    -0.0500103148       -0.316955      0.411405781    -0.508227337
3.1328               0.411671716    -0.509502109    -0.0501804311     -0.31623208    -0.0501782435    -0.316229566      0.410638971    -0.509221056
3.1342               0.410903551    -0.510493421    -0.0503452274     -0.31550723    -0.0503430551    -0.315504746      0.409867408    -0.510213126
3.1356               0.410130645    -0.511483073    -0.0505069147     -0.31478301    -0.0505047584    -0.314780555      0.409091091    -0.511203527
3.137                   0.409353    -0.512471047    -0.0506655019    -0.314059436    -0.0506633619    -0.314057011      0.408310022    -0.512192239
3.1384               0.408570615     -0.51345732    -0.0508209976    -0.313336525    -0.0508188745    -0.313334131      0.407524201    -0.513179241
3.1398               0.407783492    -0.514441874    -0.0509734108    -0.312614295    -0.0509713051    -0.312611931      0.406733628    -0.514164513
3.1412               0.406991631    -0.515424687    -0.0511227507    -0.311892761    -0.0511206629    -0.311890427      0.405938305    -0.515148034
3.1426               0.406195033    -0.516405739    -0.0512690265     -0.31117194     -0.051266957    -0.311169637      0.405138232    -0.516129784
3.144                0.405393699     -0.51738501    -0.0514122475    -0.310451849    -0.0514101969    -0.310449577      0.404333409    -0.517109742
3.1454                0.40458763    -0.518362479    -0.0515524232    -0.309732504    -0.0515503921    -0.309730264       0.40352384    -0.518087888
3.1468               0.403776828    -0.519338125    -0.0516895632    -0.309013922     -0.051687552    -0.309011713      0.402709523    -0.519064201
3.1482               0.402961292    -0.520311929    -0.0518236774    -0.308296118    -0.0518216866    -0.308293941      0.401890461    -0.520038661
3.1496               0.402141025    -0.521283868    -0.0519547754    -0.307579109    -0.0519528057    -0.307576963      0.401066655    -0.521011246
3.151                0.401316027    -0.522253923    -0.0520828675    -0.306862911    -0.0520809193    -0.306860797      0.400238106    -0.521981936
3.1524               0.400486301    -0.523222072    -0.0522079637     -0.30614754    -0.0522060375    -0.306145458      0.399404815     -0.52295071
3.1538               0.399651848    -0.524188296    -0.0523300742    -0.305433011    -0.0523281705    -0.305430962      0.398566785    -0.523917547
3.1552               0.398812669    -0.525152572    -0.0524492095    -0.304719341    -0.0524473289    -0.304717324      0.397724016    -0.524882425
3.1566               0.397968766     -0.52611488      -0.05256538    -0.304006545    -0.0525635231     -0.30400456      0.396876511    -0.525845325
3.158                0.397120141    -0.527075198    -0.0526785964    -0.303294638    -0.0526767636    -0.303292687      0.396024271    -0.526806225
3.1594               0.396266796    -0.528033507    -0.0527888693    -0.302583637    -0.0527870614    -0.302581718      0.395167299    -0.527765103
3.1608               0.395408733    -0.528989784    -0.0528962098    -0.301873556    -0.0528944271    -0.301871671      0.394305595    -0.528721939
3.1622               0.394545953    -0.529944009    -0.0530006288    -0.301164411    -0.0529988719    -0.301162559      0.393439163    -0.529676712
3.1636               0.393678459     -0.53089616    -0.0531021373    -0.300456217    -0.0531004068    -0.300454399      0.392568004      -0.5306294
3.165                0.392806254    -0.531846217    -0.0532007466    -0.299748989     -0.053199043    -0.299747204      0.391692121    -0.531579981
3.1664               0.391929339    -0.532794157     -0.053296468    -0.299042743    -0.0532947919    -0.299040991      0.390811516    -0.532528435
3.1678               0.391047717    -0.533739959     -0.053389313    -0.298337492     -0.053387665    -0.298335774      0.389926192     -0.53347474
3.1692                0.39016139    -0.534683603    -0.0534792931    -0.297633251    -0.0534776737    -0.297631568       0.38903615    -0.534418875
3.1706               0.389270361    -0.535625066      -0.05356642    -0.296930037    -0.0535648297    -0.296928387      0.388141395    -0.535360817
3.172                0.388374634    -0.536564327    -0.0536507054    -0.296227861    -0.0536491449    -0.296226247      0.387241928    -0.536300546
3.1734                0.38747421    -0.537501364    -0.0537321613    -0.295526741    -0.0537306311     -0.29552516      0.386337752     -0.53723804
3.1748               0.386569092    -0.538436157    -0.0538107996    -0.294826689    -0.0538093003    -0.294825143       0.38542887    -0.538173278
3.1762               0.385659284    -0.539368683    -0.0538866324    -0.294127719    -0.0538851645    -0.294126208      0.384515286    -0.539106237
3.1776               0.384744789    -0.540298921     -0.053959672    -0.293429847    -0.0539582361    -0.293428371      0.383597003    -0.540036895
3.179                 0.38382561    -0.541226848    -0.0540299305    -0.292733086    -0.0540285273    -0.292731644      0.382674023    -0.540965232
3.1804                0.38290175    -0.542152444    -0.0540974205    -0.292037449    -0.0540960505    -0.292036042       0.38174635    -0.541891225
3.1818               0.381973213    -0.543075686    -0.0541621544    -0.291342951    -0.0541608181    -0.291341579      0.380813988    -0.542814853
3.1832               0.381040002    -0.543996553    -0.0542241449    -0.290649605    -0.0542228429    -0.290648268       0.37987694    -0.543736093
3.1846               0.380102121    -0.544915022    -0.0542834045    -0.289957424    -0.0542821375    -0.289956123      0.378935209    -0.544654923
3.186                0.379159574    -0.545831071    -0.0543399462    -0.289266423    -0.0543387146    -0.289265157        0.3779888    -0.545571322
3.1874               0.378212363     -0.54674468    -0.0543937827    -0.288576614    -0.0543925873    -0.288575383      0.377037717    -0.546485267
3.1888               0.377260495    -0.547655825    -0.0544449271     -0.28788801    -0.0544437683    -0.287886815      0.376081963    -0.547396736
3.1902               0.376303972    -0.548564485    -0.0544933924    -0.287200625    -0.0544922709    -0.287199465      0.375121542    -0.548305708
3.1916               0.375342798    -0.549470637    -0.0545391918    -0.286514471    -0.0545381082    -0.286513347      0.374156459     -0.54921216
3.193                0.374376978     -0.55037426    -0.0545823384    -0.285829562    -0.0545812933    -0.285828473      0.373186718     -0.55011607
3.1944               0.373406517     -0.55127533    -0.0546228458    -0.285145909    -0.0546218397    -0.285144856      0.372212324    -0.551017415
3.1958               0.372431418    -0.552173827    -0.0546607272    -0.284463525    -0.0546597607    -0.284462508       0.37123328    -0.551916174
3.1972               0.371451687    -0.553069727    -0.0546959961    -0.283782423    -0.0546950699    -0.283781442      0.370249592    -0.552812323
3.1986               0.370467328    -0.553963009    -0.0547286661    -0.283102615    -0.0547277807    -0.283101669      0.369261264    -0.553705841
3.2                  0.369478345     -0.55485365    -0.0547587509    -0.282424113     -0.054757907    -0.282423203      0.368268301    -0.554596706
