! z-wave, serp_R 8.5, sub_h 6.508, ON-BODY phantom
! raw single-ended 2-port; Sdd11 = (S11-S12-S21+S22)/2
# GHZ S RI R 50
1.500000 2.807140e-01 -6.622735e-01 5.091235e-01 1.123293e-01 5.091225e-01 1.123292e-01 2.812545e-01 -6.621641e-01
1.501700 2.780139e-01 -6.614895e-01 5.109354e-01 1.108761e-01 5.109340e-01 1.108743e-01 2.785572e-01 -6.613823e-01
1.503400 2.753144e-01 -6.606875e-01 5.127403e-01 1.094075e-01 5.127385e-01 1.094042e-01 2.758607e-01 -6.605825e-01
1.505100 2.726158e-01 -6.598677e-01 5.145381e-01 1.079235e-01 5.145358e-01 1.079187e-01 2.731649e-01 -6.597649e-01
1.506800 2.699183e-01 -6.590299e-01 5.163285e-01 1.064243e-01 5.163258e-01 1.064181e-01 2.704702e-01 -6.589294e-01
1.508500 2.672218e-01 -6.581740e-01 5.181114e-01 1.049097e-01 5.181083e-01 1.049022e-01 2.677766e-01 -6.580758e-01
1.510200 2.645265e-01 -6.573001e-01 5.198867e-01 1.033798e-01 5.198830e-01 1.033711e-01 2.650841e-01 -6.572041e-01
1.511900 2.618327e-01 -6.564080e-01 5.216541e-01 1.018347e-01 5.216500e-01 1.018248e-01 2.623931e-01 -6.563142e-01
1.513600 2.591403e-01 -6.554976e-01 5.234135e-01 1.002744e-01 5.234089e-01 1.002634e-01 2.597035e-01 -6.554062e-01
1.515300 2.564495e-01 -6.545690e-01 5.251648e-01 9.869881e-02 5.251596e-01 9.868683e-02 2.570155e-01 -6.544798e-01
1.517000 2.537605e-01 -6.536220e-01 5.269076e-01 9.710812e-02 5.269019e-01 9.709521e-02 2.543292e-01 -6.535352e-01
1.518700 2.510734e-01 -6.526566e-01 5.286420e-01 9.550230e-02 5.286357e-01 9.548853e-02 2.516448e-01 -6.525721e-01
1.520400 2.483883e-01 -6.516728e-01 5.303676e-01 9.388140e-02 5.303608e-01 9.386684e-02 2.489625e-01 -6.515906e-01
1.522100 2.457053e-01 -6.506704e-01 5.320844e-01 9.224546e-02 5.320770e-01 9.223018e-02 2.462822e-01 -6.505906e-01
1.523800 2.430246e-01 -6.496495e-01 5.337921e-01 9.059453e-02 5.337842e-01 9.057860e-02 2.436042e-01 -6.495721e-01
1.525500 2.403464e-01 -6.486099e-01 5.354905e-01 8.892865e-02 5.354821e-01 8.891213e-02 2.409286e-01 -6.485349e-01
1.527200 2.376706e-01 -6.475516e-01 5.371796e-01 8.724786e-02 5.371706e-01 8.723083e-02 2.382555e-01 -6.474790e-01
1.528900 2.349976e-01 -6.464745e-01 5.388590e-01 8.555224e-02 5.388496e-01 8.553475e-02 2.355851e-01 -6.464044e-01
1.530600 2.323273e-01 -6.453787e-01 5.405287e-01 8.384183e-02 5.405187e-01 8.382393e-02 2.329175e-01 -6.453109e-01
1.532300 2.296600e-01 -6.442639e-01 5.421885e-01 8.211668e-02 5.421780e-01 8.209845e-02 2.302529e-01 -6.441987e-01
1.534000 2.269959e-01 -6.431303e-01 5.438381e-01 8.037687e-02 5.438271e-01 8.035836e-02 2.275913e-01 -6.430675e-01
1.535700 2.243349e-01 -6.419777e-01 5.454774e-01 7.862246e-02 5.454659e-01 7.860372e-02 2.249329e-01 -6.419173e-01
1.537400 2.216773e-01 -6.408060e-01 5.471062e-01 7.685352e-02 5.470943e-01 7.683461e-02 2.222779e-01 -6.407481e-01
1.539100 2.190233e-01 -6.396152e-01 5.487243e-01 7.507011e-02 5.487119e-01 7.505108e-02 2.196264e-01 -6.395599e-01
1.540800 2.163728e-01 -6.384053e-01 5.503316e-01 7.327231e-02 5.503188e-01 7.325321e-02 2.169786e-01 -6.383525e-01
1.542500 2.137262e-01 -6.371762e-01 5.519278e-01 7.146020e-02 5.519146e-01 7.144108e-02 2.143345e-01 -6.371260e-01
1.544200 2.110836e-01 -6.359278e-01 5.535128e-01 6.963386e-02 5.534992e-01 6.961477e-02 2.116944e-01 -6.358802e-01
1.545900 2.084450e-01 -6.346601e-01 5.550864e-01 6.779338e-02 5.550724e-01 6.777435e-02 2.090584e-01 -6.346151e-01
1.547600 2.058107e-01 -6.333731e-01 5.566484e-01 6.593884e-02 5.566341e-01 6.591992e-02 2.064266e-01 -6.333306e-01
1.549300 2.031808e-01 -6.320666e-01 5.581987e-01 6.407033e-02 5.581840e-01 6.405156e-02 2.037991e-01 -6.320268e-01
1.551000 2.005554e-01 -6.307406e-01 5.597370e-01 6.218796e-02 5.597220e-01 6.216937e-02 2.011762e-01 -6.307035e-01
1.552700 1.979346e-01 -6.293952e-01 5.612632e-01 6.029181e-02 5.612479e-01 6.027345e-02 1.985580e-01 -6.293607e-01
1.554400 1.953188e-01 -6.280301e-01 5.627770e-01 5.838198e-02 5.627615e-01 5.836388e-02 1.959445e-01 -6.279983e-01
1.556100 1.927079e-01 -6.266454e-01 5.642783e-01 5.645860e-02 5.642626e-01 5.644078e-02 1.933361e-01 -6.266163e-01
1.557800 1.901021e-01 -6.252410e-01 5.657670e-01 5.452175e-02 5.657511e-01 5.450426e-02 1.907328e-01 -6.252147e-01
1.559500 1.875017e-01 -6.238169e-01 5.672428e-01 5.257156e-02 5.672267e-01 5.255442e-02 1.881348e-01 -6.237933e-01
1.561200 1.849067e-01 -6.223730e-01 5.687056e-01 5.060815e-02 5.686893e-01 5.059138e-02 1.855422e-01 -6.223522e-01
1.562900 1.823173e-01 -6.209093e-01 5.701551e-01 4.863163e-02 5.701387e-01 4.861526e-02 1.829552e-01 -6.208913e-01
1.564600 1.797337e-01 -6.194256e-01 5.715912e-01 4.664213e-02 5.715748e-01 4.662618e-02 1.803740e-01 -6.194104e-01
1.566300 1.771560e-01 -6.179220e-01 5.730137e-01 4.463978e-02 5.729972e-01 4.462427e-02 1.777987e-01 -6.179097e-01
1.568000 1.745844e-01 -6.163984e-01 5.744225e-01 4.262471e-02 5.744060e-01 4.260966e-02 1.752294e-01 -6.163890e-01
1.569700 1.720191e-01 -6.148548e-01 5.758173e-01 4.059706e-02 5.758008e-01 4.058249e-02 1.726665e-01 -6.148482e-01
1.571400 1.694602e-01 -6.132910e-01 5.771980e-01 3.855696e-02 5.771815e-01 3.854288e-02 1.701099e-01 -6.132874e-01
1.573100 1.669079e-01 -6.117071e-01 5.785645e-01 3.650457e-02 5.785480e-01 3.649100e-02 1.675599e-01 -6.117064e-01
1.574800 1.643623e-01 -6.101030e-01 5.799164e-01 3.444003e-02 5.799000e-01 3.442697e-02 1.650166e-01 -6.101052e-01
1.576500 1.618237e-01 -6.084786e-01 5.812537e-01 3.236350e-02 5.812374e-01 3.235096e-02 1.624803e-01 -6.084838e-01
1.578200 1.592921e-01 -6.068339e-01 5.825762e-01 3.027513e-02 5.825601e-01 3.026313e-02 1.599510e-01 -6.068421e-01
1.579900 1.567678e-01 -6.051688e-01 5.838837e-01 2.817509e-02 5.838677e-01 2.816362e-02 1.574290e-01 -6.051801e-01
1.581600 1.542510e-01 -6.034833e-01 5.851760e-01 2.606354e-02 5.851603e-01 2.605261e-02 1.549144e-01 -6.034977e-01
1.583300 1.517418e-01 -6.017774e-01 5.864531e-01 2.394066e-02 5.864375e-01 2.393027e-02 1.524074e-01 -6.017948e-01
1.585000 1.492403e-01 -6.000509e-01 5.877146e-01 2.180661e-02 5.876993e-01 2.179676e-02 1.499082e-01 -6.000715e-01
1.586700 1.467469e-01 -5.983038e-01 5.889605e-01 1.966159e-02 5.889455e-01 1.965228e-02 1.474169e-01 -5.983275e-01
1.588400 1.442616e-01 -5.965361e-01 5.901906e-01 1.750577e-02 5.901759e-01 1.749699e-02 1.449338e-01 -5.965630e-01
1.590100 1.417847e-01 -5.947477e-01 5.914047e-01 1.533934e-02 5.913904e-01 1.533109e-02 1.424590e-01 -5.947778e-01
1.591800 1.393163e-01 -5.929386e-01 5.926027e-01 1.316249e-02 5.925887e-01 1.315477e-02 1.399928e-01 -5.929719e-01
1.593500 1.368566e-01 -5.911086e-01 5.937845e-01 1.097543e-02 5.937708e-01 1.096823e-02 1.375352e-01 -5.911453e-01
1.595200 1.344058e-01 -5.892578e-01 5.949498e-01 8.778353e-03 5.949365e-01 8.771664e-03 1.350865e-01 -5.892978e-01
1.596900 1.319642e-01 -5.873862e-01 5.960985e-01 6.571471e-03 5.960857e-01 6.565281e-03 1.326470e-01 -5.874295e-01
1.598600 1.295318e-01 -5.854935e-01 5.972305e-01 4.354993e-03 5.972181e-01 4.349290e-03 1.302167e-01 -5.855402e-01
1.600300 1.271090e-01 -5.835799e-01 5.983457e-01 2.129137e-03 5.983338e-01 2.123907e-03 1.277959e-01 -5.836300e-01
1.602000 1.246958e-01 -5.816452e-01 5.994439e-01 -1.058785e-04 5.994324e-01 -1.106489e-04 1.253848e-01 -5.816987e-01
1.603700 1.222926e-01 -5.796894e-01 6.005249e-01 -2.349826e-03 6.005139e-01 -2.354153e-03 1.229835e-01 -5.797464e-01
1.605400 1.198995e-01 -5.777124e-01 6.015887e-01 -4.602477e-03 6.015782e-01 -4.606376e-03 1.205924e-01 -5.777729e-01
1.607100 1.175167e-01 -5.757142e-01 6.026351e-01 -6.863597e-03 6.026252e-01 -6.867085e-03 1.182116e-01 -5.757783e-01
1.608800 1.151445e-01 -5.736948e-01 6.036640e-01 -9.132946e-03 6.036546e-01 -9.136041e-03 1.158413e-01 -5.737624e-01
1.610500 1.127831e-01 -5.716540e-01 6.046752e-01 -1.141028e-02 6.046664e-01 -1.141300e-02 1.134817e-01 -5.717252e-01
1.612200 1.104326e-01 -5.695918e-01 6.056688e-01 -1.369535e-02 6.056605e-01 -1.369772e-02 1.111332e-01 -5.696666e-01
1.613900 1.080934e-01 -5.675082e-01 6.066445e-01 -1.598791e-02 6.066368e-01 -1.598995e-02 1.087958e-01 -5.675867e-01
1.615600 1.057656e-01 -5.654031e-01 6.076022e-01 -1.828770e-02 6.075951e-01 -1.828943e-02 1.064698e-01 -5.654853e-01
1.617300 1.034495e-01 -5.632764e-01 6.085419e-01 -2.059446e-02 6.085354e-01 -2.059589e-02 1.041555e-01 -5.633624e-01
1.619000 1.011453e-01 -5.611282e-01 6.094635e-01 -2.290792e-02 6.094575e-01 -2.290909e-02 1.018530e-01 -5.612179e-01
1.620700 9.885330e-02 -5.589583e-01 6.103668e-01 -2.522781e-02 6.103614e-01 -2.522874e-02 9.956270e-02 -5.590519e-01
1.622400 9.657368e-02 -5.567667e-01 6.112518e-01 -2.755386e-02 6.112471e-01 -2.755457e-02 9.728476e-02 -5.568641e-01
1.624100 9.430672e-02 -5.545534e-01 6.121185e-01 -2.988580e-02 6.121143e-01 -2.988631e-02 9.501944e-02 -5.546547e-01
1.625800 9.205267e-02 -5.523183e-01 6.129667e-01 -3.222334e-02 6.129631e-01 -3.222367e-02 9.276700e-02 -5.524235e-01
1.627500 8.981179e-02 -5.500613e-01 6.137964e-01 -3.456620e-02 6.137934e-01 -3.456638e-02 9.052770e-02 -5.501705e-01
1.629200 8.758436e-02 -5.477824e-01 6.146075e-01 -3.691408e-02 6.146052e-01 -3.691414e-02 8.830180e-02 -5.478956e-01
1.630900 8.537063e-02 -5.454816e-01 6.154000e-01 -3.926671e-02 6.153983e-01 -3.926666e-02 8.608956e-02 -5.455989e-01
1.632600 8.317089e-02 -5.431589e-01 6.161739e-01 -4.162377e-02 6.161727e-01 -4.162365e-02 8.389127e-02 -5.432802e-01
1.634300 8.098542e-02 -5.408140e-01 6.169290e-01 -4.398498e-02 6.169285e-01 -4.398480e-02 8.170721e-02 -5.409394e-01
1.636000 7.881450e-02 -5.384472e-01 6.176655e-01 -4.635004e-02 6.176655e-01 -4.634982e-02 7.953766e-02 -5.385767e-01
1.637700 7.665843e-02 -5.360582e-01 6.183832e-01 -4.871863e-02 6.183838e-01 -4.871840e-02 7.738290e-02 -5.361919e-01
1.639400 7.451750e-02 -5.336470e-01 6.190822e-01 -5.109045e-02 6.190834e-01 -5.109024e-02 7.524325e-02 -5.337849e-01
1.641100 7.239203e-02 -5.312137e-01 6.197625e-01 -5.346520e-02 6.197642e-01 -5.346502e-02 7.311900e-02 -5.313558e-01
1.642800 7.028231e-02 -5.287581e-01 6.204240e-01 -5.584257e-02 6.204262e-01 -5.584244e-02 7.101046e-02 -5.289045e-01
1.644500 6.818867e-02 -5.262803e-01 6.210668e-01 -5.822223e-02 6.210696e-01 -5.822218e-02 6.891794e-02 -5.264310e-01
1.646200 6.611144e-02 -5.237802e-01 6.216910e-01 -6.060388e-02 6.216942e-01 -6.060392e-02 6.684178e-02 -5.239353e-01
1.647900 6.405094e-02 -5.212578e-01 6.222964e-01 -6.298720e-02 6.223002e-01 -6.298736e-02 6.478230e-02 -5.214172e-01
1.649600 6.200751e-02 -5.187131e-01 6.228833e-01 -6.537188e-02 6.228875e-01 -6.537217e-02 6.273983e-02 -5.188769e-01
1.651300 5.998149e-02 -5.161460e-01 6.234516e-01 -6.775760e-02 6.234562e-01 -6.775803e-02 6.071472e-02 -5.163143e-01
1.653000 5.797324e-02 -5.135565e-01 6.240014e-01 -7.014404e-02 6.240065e-01 -7.014463e-02 5.870732e-02 -5.137293e-01
1.654700 5.598312e-02 -5.109447e-01 6.245328e-01 -7.253088e-02 6.245383e-01 -7.253166e-02 5.671798e-02 -5.111219e-01
1.656400 5.401148e-02 -5.083105e-01 6.250459e-01 -7.491781e-02 6.250518e-01 -7.491878e-02 5.474708e-02 -5.084922e-01
1.658100 5.205872e-02 -5.056539e-01 6.255407e-01 -7.730451e-02 6.255470e-01 -7.730569e-02 5.279497e-02 -5.058402e-01
1.659800 5.012520e-02 -5.029749e-01 6.260174e-01 -7.969067e-02 6.260240e-01 -7.969206e-02 5.086205e-02 -5.031658e-01
1.661500 4.821131e-02 -5.002736e-01 6.264762e-01 -8.207598e-02 6.264831e-01 -8.207759e-02 4.894871e-02 -5.004691e-01
1.663200 4.631746e-02 -4.975499e-01 6.269170e-01 -8.446012e-02 6.269242e-01 -8.446197e-02 4.705532e-02 -4.977500e-01
1.664900 4.444404e-02 -4.948039e-01 6.273401e-01 -8.684278e-02 6.273475e-01 -8.684488e-02 4.518231e-02 -4.950086e-01
1.666600 4.259147e-02 -4.920356e-01 6.277456e-01 -8.922367e-02 6.277533e-01 -8.922601e-02 4.333007e-02 -4.922450e-01
1.668300 4.076017e-02 -4.892450e-01 6.281336e-01 -9.160248e-02 6.281416e-01 -9.160507e-02 4.149903e-02 -4.894591e-01
1.670000 3.895057e-02 -4.864323e-01 6.285044e-01 -9.397890e-02 6.285126e-01 -9.398176e-02 3.968961e-02 -4.866510e-01
1.671700 3.716309e-02 -4.835973e-01 6.288582e-01 -9.635266e-02 6.288665e-01 -9.635577e-02 3.790225e-02 -4.838208e-01
1.673400 3.539819e-02 -4.807403e-01 6.291950e-01 -9.872346e-02 6.292035e-01 -9.872683e-02 3.613740e-02 -4.809684e-01
1.675100 3.365631e-02 -4.778612e-01 6.295153e-01 -1.010910e-01 6.295238e-01 -1.010946e-01 3.439548e-02 -4.780941e-01
1.676800 3.193791e-02 -4.749602e-01 6.298190e-01 -1.034551e-01 6.298277e-01 -1.034589e-01 3.267698e-02 -4.751978e-01
1.678500 3.024346e-02 -4.720373e-01 6.301065e-01 -1.058153e-01 6.301153e-01 -1.058195e-01 3.098234e-02 -4.722797e-01
1.680200 2.857343e-02 -4.690927e-01 6.303781e-01 -1.081715e-01 6.303869e-01 -1.081759e-01 2.931205e-02 -4.693398e-01
1.681900 2.692830e-02 -4.661265e-01 6.306340e-01 -1.105234e-01 6.306428e-01 -1.105281e-01 2.766658e-02 -4.663783e-01
1.683600 2.530856e-02 -4.631387e-01 6.308743e-01 -1.128708e-01 6.308832e-01 -1.128757e-01 2.604642e-02 -4.633953e-01
1.685300 2.371470e-02 -4.601296e-01 6.310995e-01 -1.152134e-01 6.311084e-01 -1.152185e-01 2.445206e-02 -4.603909e-01
1.687000 2.214722e-02 -4.570992e-01 6.313098e-01 -1.175510e-01 6.313187e-01 -1.175563e-01 2.288399e-02 -4.573653e-01
1.688700 2.060663e-02 -4.540478e-01 6.315055e-01 -1.198833e-01 6.315143e-01 -1.198889e-01 2.134273e-02 -4.543187e-01
1.690400 1.909343e-02 -4.509755e-01 6.316869e-01 -1.222103e-01 6.316956e-01 -1.222160e-01 1.982879e-02 -4.512511e-01
1.692100 1.760815e-02 -4.478826e-01 6.318544e-01 -1.245316e-01 6.318630e-01 -1.245375e-01 1.834268e-02 -4.481629e-01
1.693800 1.615131e-02 -4.447692e-01 6.320081e-01 -1.268472e-01 6.320166e-01 -1.268532e-01 1.688493e-02 -4.450542e-01
1.695500 1.472343e-02 -4.416355e-01 6.321485e-01 -1.291567e-01 6.321569e-01 -1.291630e-01 1.545606e-02 -4.419253e-01
1.697200 1.332505e-02 -4.384819e-01 6.322760e-01 -1.314602e-01 6.322842e-01 -1.314666e-01 1.405659e-02 -4.387763e-01
1.698900 1.195669e-02 -4.353085e-01 6.323908e-01 -1.337574e-01 6.323989e-01 -1.337639e-01 1.268708e-02 -4.356076e-01
1.700600 1.061890e-02 -4.321157e-01 6.324933e-01 -1.360483e-01 6.325012e-01 -1.360549e-01 1.134804e-02 -4.324194e-01
1.702300 9.312205e-03 -4.289037e-01 6.325839e-01 -1.383327e-01 6.325917e-01 -1.383393e-01 1.004003e-02 -4.292120e-01
1.704000 8.037158e-03 -4.256729e-01 6.326630e-01 -1.406105e-01 6.326706e-01 -1.406172e-01 8.763573e-03 -4.259857e-01
1.705700 6.794295e-03 -4.224235e-01 6.327309e-01 -1.428817e-01 6.327383e-01 -1.428884e-01 7.519222e-03 -4.227410e-01
1.707400 5.584157e-03 -4.191560e-01 6.327880e-01 -1.451461e-01 6.327952e-01 -1.451529e-01 6.307515e-03 -4.194780e-01
1.709100 4.407284e-03 -4.158707e-01 6.328347e-01 -1.474039e-01 6.328416e-01 -1.474107e-01 5.128993e-03 -4.161972e-01
1.710800 3.264215e-03 -4.125681e-01 6.328713e-01 -1.496548e-01 6.328781e-01 -1.496617e-01 3.984197e-03 -4.128990e-01
1.712500 2.155486e-03 -4.092485e-01 6.328983e-01 -1.518990e-01 6.329049e-01 -1.519058e-01 2.873662e-03 -4.095837e-01
1.714200 1.081630e-03 -4.059123e-01 6.329161e-01 -1.541365e-01 6.329224e-01 -1.541433e-01 1.797922e-03 -4.062519e-01
1.715900 4.317371e-05 -4.025601e-01 6.329250e-01 -1.563672e-01 6.329311e-01 -1.563740e-01 7.575075e-04 -4.029040e-01
1.717600 -9.593587e-04 -3.991922e-01 6.329254e-01 -1.585913e-01 6.329314e-01 -1.585980e-01 -2.470579e-04 -3.995404e-01
1.719300 -1.925451e-03 -3.958093e-01 6.329178e-01 -1.608088e-01 6.329235e-01 -1.608154e-01 -1.215256e-03 -3.961617e-01
1.721000 -2.854595e-03 -3.924118e-01 6.329024e-01 -1.630199e-01 6.329080e-01 -1.630263e-01 -2.146577e-03 -3.927683e-01
1.722700 -3.746289e-03 -3.890003e-01 6.328797e-01 -1.652245e-01 6.328851e-01 -1.652308e-01 -3.040518e-03 -3.893609e-01
1.724400 -4.600044e-03 -3.855753e-01 6.328501e-01 -1.674229e-01 6.328553e-01 -1.674291e-01 -3.896588e-03 -3.859400e-01
1.726100 -5.415379e-03 -3.821375e-01 6.328139e-01 -1.696152e-01 6.328189e-01 -1.696213e-01 -4.714303e-03 -3.825061e-01
1.727800 -6.191827e-03 -3.786874e-01 6.327715e-01 -1.718016e-01 6.327763e-01 -1.718075e-01 -5.493195e-03 -3.790599e-01
1.729500 -6.928932e-03 -3.752256e-01 6.327232e-01 -1.739823e-01 6.327279e-01 -1.739881e-01 -6.232806e-03 -3.756020e-01
1.731200 -7.626255e-03 -3.717529e-01 6.326694e-01 -1.761575e-01 6.326739e-01 -1.761630e-01 -6.932694e-03 -3.721331e-01
1.732900 -8.283370e-03 -3.682699e-01 6.326104e-01 -1.783274e-01 6.326148e-01 -1.783328e-01 -7.592431e-03 -3.686538e-01
1.734600 -8.899869e-03 -3.647773e-01 6.325466e-01 -1.804923e-01 6.325509e-01 -1.804974e-01 -8.211607e-03 -3.651648e-01
1.736300 -9.475362e-03 -3.612758e-01 6.324782e-01 -1.826524e-01 6.324824e-01 -1.826574e-01 -8.789830e-03 -3.616669e-01
1.738000 -1.000948e-02 -3.577662e-01 6.324056e-01 -1.848081e-01 6.324096e-01 -1.848128e-01 -9.326724e-03 -3.581607e-01
1.739700 -1.050186e-02 -3.542491e-01 6.323289e-01 -1.869595e-01 6.323329e-01 -1.869641e-01 -9.821937e-03 -3.546471e-01
1.741400 -1.095219e-02 -3.507255e-01 6.322486e-01 -1.891072e-01 6.322525e-01 -1.891115e-01 -1.027513e-02 -3.511267e-01
1.743100 -1.136015e-02 -3.471959e-01 6.321648e-01 -1.912513e-01 6.321687e-01 -1.912555e-01 -1.068601e-02 -3.476005e-01
1.744800 -1.172546e-02 -3.436614e-01 6.320777e-01 -1.933923e-01 6.320816e-01 -1.933962e-01 -1.105427e-02 -3.440691e-01
1.746500 -1.204786e-02 -3.401226e-01 6.319877e-01 -1.955305e-01 6.319915e-01 -1.955342e-01 -1.137965e-02 -3.405334e-01
1.748200 -1.232712e-02 -3.365805e-01 6.318948e-01 -1.976663e-01 6.318986e-01 -1.976698e-01 -1.166193e-02 -3.369943e-01
1.749900 -1.256302e-02 -3.330358e-01 6.317992e-01 -1.998000e-01 6.318030e-01 -1.998034e-01 -1.190088e-02 -3.334526e-01
1.751600 -1.275538e-02 -3.294894e-01 6.317011e-01 -2.019322e-01 6.317049e-01 -2.019353e-01 -1.209632e-02 -3.299091e-01
1.753300 -1.290406e-02 -3.259423e-01 6.316006e-01 -2.040631e-01 6.316044e-01 -2.040660e-01 -1.224810e-02 -3.263647e-01
1.755000 -1.300893e-02 -3.223952e-01 6.314978e-01 -2.061932e-01 6.315016e-01 -2.061960e-01 -1.235609e-02 -3.228203e-01
1.756700 -1.306989e-02 -3.188491e-01 6.313927e-01 -2.083230e-01 6.313966e-01 -2.083256e-01 -1.242020e-02 -3.192768e-01
1.758400 -1.308688e-02 -3.153049e-01 6.312855e-01 -2.104528e-01 6.312895e-01 -2.104552e-01 -1.244035e-02 -3.157351e-01
1.760100 -1.305986e-02 -3.117635e-01 6.311762e-01 -2.125831e-01 6.311802e-01 -2.125854e-01 -1.241650e-02 -3.121961e-01
1.761800 -1.298883e-02 -3.082257e-01 6.310647e-01 -2.147144e-01 6.310688e-01 -2.147166e-01 -1.234866e-02 -3.086607e-01
1.763500 -1.287382e-02 -3.046925e-01 6.309511e-01 -2.168470e-01 6.309552e-01 -2.168491e-01 -1.223684e-02 -3.051298e-01
1.765200 -1.271489e-02 -3.011648e-01 6.308352e-01 -2.189815e-01 6.308394e-01 -2.189835e-01 -1.208110e-02 -3.016043e-01
1.766900 -1.251213e-02 -2.976435e-01 6.307171e-01 -2.211183e-01 6.307213e-01 -2.211201e-01 -1.188153e-02 -2.980852e-01
1.768600 -1.226565e-02 -2.941295e-01 6.305965e-01 -2.232577e-01 6.306009e-01 -2.232595e-01 -1.163825e-02 -2.945732e-01
1.770300 -1.197562e-02 -2.906238e-01 6.304735e-01 -2.254003e-01 6.304779e-01 -2.254020e-01 -1.135141e-02 -2.910694e-01
1.772000 -1.164221e-02 -2.871272e-01 6.303478e-01 -2.275465e-01 6.303523e-01 -2.275481e-01 -1.102119e-02 -2.875747e-01
1.773700 -1.126565e-02 -2.836405e-01 6.302192e-01 -2.296966e-01 6.302238e-01 -2.296983e-01 -1.064781e-02 -2.840899e-01
1.775400 -1.084619e-02 -2.801648e-01 6.300877e-01 -2.318512e-01 6.300923e-01 -2.318528e-01 -1.023152e-02 -2.806159e-01
1.777100 -1.038409e-02 -2.767008e-01 6.299528e-01 -2.340105e-01 6.299575e-01 -2.340121e-01 -9.772577e-03 -2.771536e-01
1.778800 -9.879670e-03 -2.732495e-01 6.298145e-01 -2.361751e-01 6.298193e-01 -2.361767e-01 -9.271300e-03 -2.737038e-01
1.780500 -9.333264e-03 -2.698117e-01 6.296723e-01 -2.383452e-01 6.296772e-01 -2.383468e-01 -8.728020e-03 -2.702675e-01
1.782200 -8.745239e-03 -2.663881e-01 6.295262e-01 -2.405212e-01 6.295310e-01 -2.405229e-01 -8.143102e-03 -2.668454e-01
1.783900 -8.115987e-03 -2.629798e-01 6.293756e-01 -2.427036e-01 6.293805e-01 -2.427053e-01 -7.516937e-03 -2.634384e-01
1.785600 -7.445928e-03 -2.595873e-01 6.292203e-01 -2.448926e-01 6.292252e-01 -2.448943e-01 -6.849942e-03 -2.600473e-01
1.787300 -6.735508e-03 -2.562116e-01 6.290599e-01 -2.470885e-01 6.290649e-01 -2.470903e-01 -6.142563e-03 -2.566728e-01
1.789000 -5.985199e-03 -2.528534e-01 6.288941e-01 -2.492916e-01 6.288990e-01 -2.492935e-01 -5.395269e-03 -2.533157e-01
1.790700 -5.195495e-03 -2.495134e-01 6.287224e-01 -2.515023e-01 6.287274e-01 -2.515042e-01 -4.608552e-03 -2.499769e-01
1.792400 -4.366914e-03 -2.461924e-01 6.285446e-01 -2.537207e-01 6.285495e-01 -2.537228e-01 -3.782930e-03 -2.466570e-01
1.794100 -3.499995e-03 -2.428911e-01 6.283600e-01 -2.559472e-01 6.283649e-01 -2.559493e-01 -2.918940e-03 -2.433566e-01
1.795800 -2.595298e-03 -2.396102e-01 6.281684e-01 -2.581819e-01 6.281732e-01 -2.581841e-01 -2.017139e-03 -2.400766e-01
1.797500 -1.653401e-03 -2.363502e-01 6.279692e-01 -2.604250e-01 6.279740e-01 -2.604273e-01 -1.078107e-03 -2.368175e-01
1.799200 -6.748987e-04 -2.331119e-01 6.277620e-01 -2.626767e-01 6.277667e-01 -2.626791e-01 -1.024358e-04 -2.335800e-01
1.800900 3.395951e-04 -2.298958e-01 6.275464e-01 -2.649372e-01 6.275510e-01 -2.649396e-01 9.092617e-04 -2.303648e-01
1.802600 1.389454e-03 -2.267026e-01 6.273218e-01 -2.672065e-01 6.273264e-01 -2.672091e-01 1.956360e-03 -2.271722e-01
1.804300 2.474037e-03 -2.235328e-01 6.270879e-01 -2.694848e-01 6.270923e-01 -2.694874e-01 3.038218e-03 -2.240031e-01
1.806000 3.592692e-03 -2.203868e-01 6.268440e-01 -2.717721e-01 6.268482e-01 -2.717748e-01 4.154186e-03 -2.208577e-01
1.807700 4.744755e-03 -2.172653e-01 6.265897e-01 -2.740685e-01 6.265938e-01 -2.740713e-01 5.303600e-03 -2.177368e-01
1.809400 5.929554e-03 -2.141686e-01 6.263245e-01 -2.763740e-01 6.263285e-01 -2.763770e-01 6.485788e-03 -2.146407e-01
1.811100 7.146408e-03 -2.110973e-01 6.260479e-01 -2.786887e-01 6.260517e-01 -2.786917e-01 7.700070e-03 -2.115699e-01
1.812800 8.394630e-03 -2.080518e-01 6.257595e-01 -2.810125e-01 6.257631e-01 -2.810155e-01 8.945761e-03 -2.085248e-01
1.814500 9.673529e-03 -2.050323e-01 6.254587e-01 -2.833453e-01 6.254621e-01 -2.833484e-01 1.022217e-02 -2.055058e-01
1.816200 1.098241e-02 -2.020394e-01 6.251450e-01 -2.856871e-01 6.251482e-01 -2.856902e-01 1.152859e-02 -2.025132e-01
1.817900 1.232057e-02 -1.990733e-01 6.248179e-01 -2.880378e-01 6.248209e-01 -2.880410e-01 1.286434e-02 -1.995475e-01
1.819600 1.368731e-02 -1.961344e-01 6.244770e-01 -2.903972e-01 6.244797e-01 -2.904005e-01 1.422872e-02 -1.966089e-01
1.821300 1.508194e-02 -1.932230e-01 6.241217e-01 -2.927654e-01 6.241242e-01 -2.927686e-01 1.562101e-02 -1.936977e-01
1.823000 1.650374e-02 -1.903392e-01 6.237516e-01 -2.951419e-01 6.237540e-01 -2.951452e-01 1.704053e-02 -1.908142e-01
1.824700 1.795204e-02 -1.874834e-01 6.233663e-01 -2.975268e-01 6.233684e-01 -2.975301e-01 1.848658e-02 -1.879586e-01
1.826400 1.942613e-02 -1.846558e-01 6.229652e-01 -2.999198e-01 6.229671e-01 -2.999231e-01 1.995847e-02 -1.851312e-01
1.828100 2.092533e-02 -1.818564e-01 6.225480e-01 -3.023207e-01 6.225496e-01 -3.023239e-01 2.145550e-02 -1.823320e-01
1.829800 2.244895e-02 -1.790856e-01 6.221142e-01 -3.047292e-01 6.221155e-01 -3.047324e-01 2.297700e-02 -1.795614e-01
1.831500 2.399632e-02 -1.763435e-01 6.216633e-01 -3.071451e-01 6.216644e-01 -3.071483e-01 2.452229e-02 -1.768193e-01
1.833200 2.556677e-02 -1.736301e-01 6.211950e-01 -3.095682e-01 6.211958e-01 -3.095712e-01 2.609070e-02 -1.741060e-01
1.834900 2.715963e-02 -1.709455e-01 6.207088e-01 -3.119980e-01 6.207094e-01 -3.120009e-01 2.768157e-02 -1.714216e-01
1.836600 2.877426e-02 -1.682899e-01 6.202044e-01 -3.144343e-01 6.202047e-01 -3.144372e-01 2.929423e-02 -1.687661e-01
1.838300 3.041001e-02 -1.656633e-01 6.196813e-01 -3.168768e-01 6.196814e-01 -3.168796e-01 3.092806e-02 -1.661395e-01
1.840000 3.206625e-02 -1.630658e-01 6.191394e-01 -3.193252e-01 6.191392e-01 -3.193278e-01 3.258242e-02 -1.635420e-01
1.841700 3.374235e-02 -1.604973e-01 6.185781e-01 -3.217790e-01 6.185777e-01 -3.217815e-01 3.425669e-02 -1.609736e-01
1.843400 3.543770e-02 -1.579579e-01 6.179971e-01 -3.242380e-01 6.179965e-01 -3.242404e-01 3.595024e-02 -1.584342e-01
1.845100 3.715171e-02 -1.554476e-01 6.173962e-01 -3.267017e-01 6.173954e-01 -3.267039e-01 3.766249e-02 -1.559238e-01
1.846800 3.888378e-02 -1.529662e-01 6.167751e-01 -3.291698e-01 6.167740e-01 -3.291719e-01 3.939284e-02 -1.534425e-01
1.848500 4.063334e-02 -1.505139e-01 6.161334e-01 -3.316419e-01 6.161322e-01 -3.316438e-01 4.114073e-02 -1.509901e-01
1.850200 4.239983e-02 -1.480905e-01 6.154710e-01 -3.341176e-01 6.154695e-01 -3.341193e-01 4.290557e-02 -1.485667e-01
1.851900 4.418270e-02 -1.456960e-01 6.147875e-01 -3.365964e-01 6.147858e-01 -3.365979e-01 4.468684e-02 -1.461721e-01
1.853600 4.598141e-02 -1.433302e-01 6.140827e-01 -3.390779e-01 6.140809e-01 -3.390792e-01 4.648398e-02 -1.438063e-01
1.855300 4.779543e-02 -1.409932e-01 6.133565e-01 -3.415618e-01 6.133544e-01 -3.415629e-01 4.829647e-02 -1.414693e-01
1.857000 4.962427e-02 -1.386848e-01 6.126085e-01 -3.440476e-01 6.126063e-01 -3.440484e-01 5.012381e-02 -1.391608e-01
1.858700 5.146741e-02 -1.364048e-01 6.118387e-01 -3.465348e-01 6.118364e-01 -3.465354e-01 5.196549e-02 -1.368808e-01
1.860400 5.332437e-02 -1.341532e-01 6.110469e-01 -3.490230e-01 6.110444e-01 -3.490234e-01 5.382103e-02 -1.346291e-01
1.862100 5.519470e-02 -1.319299e-01 6.102329e-01 -3.515118e-01 6.102303e-01 -3.515120e-01 5.568997e-02 -1.324057e-01
1.863800 5.707792e-02 -1.297347e-01 6.093965e-01 -3.540007e-01 6.093938e-01 -3.540007e-01 5.757183e-02 -1.302104e-01
1.865500 5.897359e-02 -1.275674e-01 6.085378e-01 -3.564893e-01 6.085350e-01 -3.564891e-01 5.946618e-02 -1.280431e-01
1.867200 6.088129e-02 -1.254280e-01 6.076565e-01 -3.589772e-01 6.076536e-01 -3.589767e-01 6.137259e-02 -1.259036e-01
1.868900 6.280059e-02 -1.233162e-01 6.067526e-01 -3.614638e-01 6.067496e-01 -3.614631e-01 6.329064e-02 -1.237918e-01
1.870600 6.473110e-02 -1.212319e-01 6.058260e-01 -3.639487e-01 6.058230e-01 -3.639478e-01 6.521992e-02 -1.217074e-01
1.872300 6.667241e-02 -1.191750e-01 6.048766e-01 -3.664316e-01 6.048736e-01 -3.664305e-01 6.716003e-02 -1.196505e-01
1.874000 6.862415e-02 -1.171453e-01 6.039045e-01 -3.689119e-01 6.039014e-01 -3.689105e-01 6.911061e-02 -1.176207e-01
1.875700 7.058595e-02 -1.151425e-01 6.029096e-01 -3.713892e-01 6.029065e-01 -3.713876e-01 7.107127e-02 -1.156179e-01
1.877400 7.255746e-02 -1.131667e-01 6.018918e-01 -3.738631e-01 6.018887e-01 -3.738613e-01 7.304167e-02 -1.136420e-01
1.879100 7.453832e-02 -1.112175e-01 6.008512e-01 -3.763331e-01 6.008481e-01 -3.763311e-01 7.502145e-02 -1.116928e-01
1.880800 7.652821e-02 -1.092948e-01 5.997879e-01 -3.787988e-01 5.997847e-01 -3.787966e-01 7.701029e-02 -1.097701e-01
1.882500 7.852680e-02 -1.073984e-01 5.987017e-01 -3.812598e-01 5.986986e-01 -3.812573e-01 7.900785e-02 -1.078737e-01
1.884200 8.053378e-02 -1.055282e-01 5.975928e-01 -3.837156e-01 5.975897e-01 -3.837130e-01 8.101383e-02 -1.060034e-01
1.885900 8.254885e-02 -1.036839e-01 5.964611e-01 -3.861658e-01 5.964581e-01 -3.861630e-01 8.302793e-02 -1.041592e-01
1.887600 8.457172e-02 -1.018655e-01 5.953069e-01 -3.886100e-01 5.953039e-01 -3.886070e-01 8.504984e-02 -1.023408e-01
1.889300 8.660211e-02 -1.000726e-01 5.941301e-01 -3.910478e-01 5.941272e-01 -3.910446e-01 8.707930e-02 -1.005480e-01
1.891000 8.863975e-02 -9.830526e-02 5.929308e-01 -3.934788e-01 5.929280e-01 -3.934754e-01 8.911603e-02 -9.878062e-02
1.892700 9.068436e-02 -9.656315e-02 5.917092e-01 -3.959025e-01 5.917065e-01 -3.958991e-01 9.115976e-02 -9.703855e-02
1.894400 9.273570e-02 -9.484614e-02 5.904653e-01 -3.983187e-01 5.904626e-01 -3.983150e-01 9.321023e-02 -9.532160e-02
1.896100 9.479353e-02 -9.315406e-02 5.891992e-01 -4.007268e-01 5.891967e-01 -4.007230e-01 9.526721e-02 -9.362959e-02
1.897800 9.685760e-02 -9.148674e-02 5.879112e-01 -4.031265e-01 5.879087e-01 -4.031227e-01 9.733045e-02 -9.196236e-02
1.899500 9.892768e-02 -8.984401e-02 5.866012e-01 -4.055175e-01 5.865988e-01 -4.055135e-01 9.939973e-02 -9.031972e-02
1.901200 1.010036e-01 -8.822571e-02 5.852695e-01 -4.078994e-01 5.852672e-01 -4.078953e-01 1.014748e-01 -8.870153e-02
1.902900 1.030850e-01 -8.663167e-02 5.839161e-01 -4.102717e-01 5.839140e-01 -4.102676e-01 1.035555e-01 -8.710761e-02
1.904600 1.051718e-01 -8.506172e-02 5.825414e-01 -4.126343e-01 5.825393e-01 -4.126300e-01 1.056416e-01 -8.553780e-02
1.906300 1.072638e-01 -8.351572e-02 5.811453e-01 -4.149866e-01 5.811434e-01 -4.149823e-01 1.077328e-01 -8.399195e-02
1.908000 1.093608e-01 -8.199351e-02 5.797282e-01 -4.173284e-01 5.797264e-01 -4.173240e-01 1.098290e-01 -8.246989e-02
1.909700 1.114625e-01 -8.049492e-02 5.782901e-01 -4.196593e-01 5.782884e-01 -4.196549e-01 1.119300e-01 -8.097148e-02
1.911400 1.135688e-01 -7.901981e-02 5.768313e-01 -4.219790e-01 5.768298e-01 -4.219745e-01 1.140357e-01 -7.949656e-02
1.913100 1.156796e-01 -7.756804e-02 5.753519e-01 -4.242872e-01 5.753505e-01 -4.242827e-01 1.161457e-01 -7.804499e-02
1.914800 1.177946e-01 -7.613944e-02 5.738523e-01 -4.265836e-01 5.738510e-01 -4.265791e-01 1.182600e-01 -7.661661e-02
1.916500 1.199136e-01 -7.473389e-02 5.723324e-01 -4.288678e-01 5.723312e-01 -4.288633e-01 1.203784e-01 -7.521128e-02
1.918200 1.220366e-01 -7.335124e-02 5.707926e-01 -4.311396e-01 5.707916e-01 -4.311352e-01 1.225008e-01 -7.382887e-02
1.919900 1.241634e-01 -7.199134e-02 5.692332e-01 -4.333987e-01 5.692322e-01 -4.333943e-01 1.246268e-01 -7.246924e-02
1.921600 1.262937e-01 -7.065408e-02 5.676542e-01 -4.356448e-01 5.676533e-01 -4.356404e-01 1.267565e-01 -7.113225e-02
1.923300 1.284275e-01 -6.933931e-02 5.660559e-01 -4.378777e-01 5.660552e-01 -4.378733e-01 1.288897e-01 -6.981777e-02
1.925000 1.305645e-01 -6.804691e-02 5.644386e-01 -4.400970e-01 5.644380e-01 -4.400927e-01 1.310261e-01 -6.852567e-02
1.926700 1.327047e-01 -6.677675e-02 5.628024e-01 -4.423025e-01 5.628019e-01 -4.422982e-01 1.331657e-01 -6.725582e-02
1.928400 1.348480e-01 -6.552871e-02 5.611476e-01 -4.444939e-01 5.611472e-01 -4.444897e-01 1.353083e-01 -6.600811e-02
1.930100 1.369941e-01 -6.430267e-02 5.594745e-01 -4.466711e-01 5.594742e-01 -4.466670e-01 1.374538e-01 -6.478240e-02
1.931800 1.391429e-01 -6.309850e-02 5.577833e-01 -4.488337e-01 5.577831e-01 -4.488297e-01 1.396020e-01 -6.357858e-02
1.933500 1.412944e-01 -6.191609e-02 5.560742e-01 -4.509815e-01 5.560741e-01 -4.509776e-01 1.417529e-01 -6.239655e-02
1.935200 1.434483e-01 -6.075534e-02 5.543475e-01 -4.531144e-01 5.543474e-01 -4.531106e-01 1.439062e-01 -6.123617e-02
1.936900 1.456045e-01 -5.961612e-02 5.526033e-01 -4.552320e-01 5.526034e-01 -4.552283e-01 1.460618e-01 -6.009734e-02
1.938600 1.477630e-01 -5.849834e-02 5.508421e-01 -4.573342e-01 5.508422e-01 -4.573307e-01 1.482197e-01 -5.897996e-02
1.940300 1.499236e-01 -5.740188e-02 5.490639e-01 -4.594208e-01 5.490641e-01 -4.594174e-01 1.503796e-01 -5.788392e-02
1.942000 1.520861e-01 -5.632665e-02 5.472691e-01 -4.614916e-01 5.472693e-01 -4.614883e-01 1.525416e-01 -5.680912e-02
1.943700 1.542505e-01 -5.527254e-02 5.454580e-01 -4.635464e-01 5.454582e-01 -4.635432e-01 1.547054e-01 -5.575545e-02
1.945400 1.564166e-01 -5.423945e-02 5.436307e-01 -4.655850e-01 5.436309e-01 -4.655820e-01 1.568709e-01 -5.472281e-02
1.947100 1.585844e-01 -5.322730e-02 5.417875e-01 -4.676072e-01 5.417878e-01 -4.676043e-01 1.590380e-01 -5.371111e-02
1.948800 1.607536e-01 -5.223598e-02 5.399287e-01 -4.696129e-01 5.399290e-01 -4.696102e-01 1.612067e-01 -5.272026e-02
1.950500 1.629242e-01 -5.126540e-02 5.380545e-01 -4.716018e-01 5.380548e-01 -4.715993e-01 1.633767e-01 -5.175017e-02
1.952200 1.650961e-01 -5.031547e-02 5.361653e-01 -4.735739e-01 5.361656e-01 -4.735715e-01 1.655480e-01 -5.080073e-02
1.953900 1.672692e-01 -4.938611e-02 5.342612e-01 -4.755290e-01 5.342615e-01 -4.755268e-01 1.677204e-01 -4.987187e-02
1.955600 1.694433e-01 -4.847723e-02 5.323425e-01 -4.774669e-01 5.323428e-01 -4.774649e-01 1.698939e-01 -4.896350e-02
1.957300 1.716184e-01 -4.758874e-02 5.304095e-01 -4.793875e-01 5.304097e-01 -4.793856e-01 1.720684e-01 -4.807552e-02
1.959000 1.737943e-01 -4.672057e-02 5.284624e-01 -4.812907e-01 5.284626e-01 -4.812890e-01 1.742436e-01 -4.720787e-02
1.960700 1.759709e-01 -4.587262e-02 5.265015e-01 -4.831763e-01 5.265016e-01 -4.831747e-01 1.764196e-01 -4.636046e-02
1.962400 1.781481e-01 -4.504482e-02 5.245270e-01 -4.850442e-01 5.245271e-01 -4.850428e-01 1.785962e-01 -4.553320e-02
1.964100 1.803258e-01 -4.423710e-02 5.225393e-01 -4.868943e-01 5.225393e-01 -4.868931e-01 1.807733e-01 -4.472602e-02
1.965800 1.825040e-01 -4.344937e-02 5.205385e-01 -4.887265e-01 5.205385e-01 -4.887254e-01 1.829507e-01 -4.393884e-02
1.967500 1.846824e-01 -4.268156e-02 5.185249e-01 -4.905406e-01 5.185248e-01 -4.905397e-01 1.851285e-01 -4.317159e-02
1.969200 1.868610e-01 -4.193359e-02 5.164988e-01 -4.923366e-01 5.164986e-01 -4.923359e-01 1.873065e-01 -4.242419e-02
1.970000 1.878863e-01 -4.158846e-02 5.155411e-01 -4.931755e-01 5.155409e-01 -4.931748e-01 1.883314e-01 -4.207932e-02
1.970900 1.890397e-01 -4.120540e-02 5.144605e-01 -4.941144e-01 5.144602e-01 -4.941138e-01 1.894845e-01 -4.169657e-02
1.972600 1.912184e-01 -4.049691e-02 5.124101e-01 -4.958738e-01 5.124097e-01 -4.958734e-01 1.916625e-01 -4.098866e-02
1.974300 1.933969e-01 -3.980805e-02 5.103480e-01 -4.976148e-01 5.103475e-01 -4.976146e-01 1.938404e-01 -4.030037e-02
1.976000 1.955753e-01 -3.913875e-02 5.082744e-01 -4.993374e-01 5.082738e-01 -4.993372e-01 1.960180e-01 -3.963166e-02
1.977700 1.977533e-01 -3.848895e-02 5.061895e-01 -5.010413e-01 5.061888e-01 -5.010413e-01 1.981953e-01 -3.898243e-02
1.979400 1.999309e-01 -3.785856e-02 5.040936e-01 -5.027266e-01 5.040928e-01 -5.027268e-01 2.003721e-01 -3.835263e-02
1.981100 2.021079e-01 -3.724753e-02 5.019870e-01 -5.043932e-01 5.019860e-01 -5.043935e-01 2.025484e-01 -3.774220e-02
1.982800 2.042843e-01 -3.665580e-02 4.998699e-01 -5.060409e-01 4.998688e-01 -5.060414e-01 2.047241e-01 -3.715105e-02
1.984500 2.064599e-01 -3.608329e-02 4.977425e-01 -5.076699e-01 4.977412e-01 -5.076705e-01 2.068990e-01 -3.657913e-02
1.986200 2.086347e-01 -3.552993e-02 4.956052e-01 -5.092799e-01 4.956037e-01 -5.092806e-01 2.090730e-01 -3.602637e-02
1.987900 2.108086e-01 -3.499568e-02 4.934581e-01 -5.108710e-01 4.934564e-01 -5.108718e-01 2.112461e-01 -3.549271e-02
1.989600 2.129814e-01 -3.448045e-02 4.913014e-01 -5.124430e-01 4.912996e-01 -5.124440e-01 2.134182e-01 -3.497807e-02
1.991300 2.151530e-01 -3.398420e-02 4.891355e-01 -5.139960e-01 4.891335e-01 -5.139971e-01 2.155890e-01 -3.448241e-02
1.993000 2.173234e-01 -3.350685e-02 4.869606e-01 -5.155299e-01 4.869584e-01 -5.155311e-01 2.177587e-01 -3.400565e-02
1.994700 2.194925e-01 -3.304834e-02 4.847769e-01 -5.170447e-01 4.847745e-01 -5.170460e-01 2.199269e-01 -3.354773e-02
1.996400 2.216601e-01 -3.260861e-02 4.825846e-01 -5.185403e-01 4.825821e-01 -5.185417e-01 2.220937e-01 -3.310859e-02
1.998100 2.238261e-01 -3.218761e-02 4.803840e-01 -5.200167e-01 4.803813e-01 -5.200182e-01 2.242589e-01 -3.268817e-02
1.999800 2.259905e-01 -3.178526e-02 4.781753e-01 -5.214739e-01 4.781724e-01 -5.214754e-01 2.264224e-01 -3.228641e-02
2.001500 2.281531e-01 -3.140151e-02 4.759588e-01 -5.229119e-01 4.759557e-01 -5.229134e-01 2.285842e-01 -3.190323e-02
2.003200 2.303138e-01 -3.103630e-02 4.737347e-01 -5.243306e-01 4.737314e-01 -5.243322e-01 2.307441e-01 -3.153859e-02
2.004900 2.324726e-01 -3.068956e-02 4.715032e-01 -5.257299e-01 4.714997e-01 -5.257316e-01 2.329020e-01 -3.119243e-02
2.006600 2.346294e-01 -3.036124e-02 4.692646e-01 -5.271100e-01 4.692608e-01 -5.271118e-01 2.350579e-01 -3.086467e-02
2.008300 2.367839e-01 -3.005127e-02 4.670190e-01 -5.284708e-01 4.670151e-01 -5.284726e-01 2.372116e-01 -3.055526e-02
2.010000 2.389363e-01 -2.975960e-02 4.647667e-01 -5.298123e-01 4.647626e-01 -5.298141e-01 2.393630e-01 -3.026414e-02
2.011700 2.410862e-01 -2.948617e-02 4.625079e-01 -5.311345e-01 4.625036e-01 -5.311362e-01 2.415121e-01 -2.999125e-02
2.013400 2.432337e-01 -2.923090e-02 4.602429e-01 -5.324373e-01 4.602384e-01 -5.324391e-01 2.436586e-01 -2.973653e-02
2.015100 2.453786e-01 -2.899375e-02 4.579719e-01 -5.337208e-01 4.579671e-01 -5.337226e-01 2.458026e-01 -2.949991e-02
2.016800 2.475209e-01 -2.877466e-02 4.556950e-01 -5.349850e-01 4.556900e-01 -5.349868e-01 2.479440e-01 -2.928134e-02
2.018500 2.496604e-01 -2.857355e-02 4.534125e-01 -5.362299e-01 4.534074e-01 -5.362316e-01 2.500825e-01 -2.908075e-02
2.020200 2.517970e-01 -2.839038e-02 4.511247e-01 -5.374554e-01 4.511193e-01 -5.374572e-01 2.522182e-01 -2.889809e-02
2.021900 2.539307e-01 -2.822508e-02 4.488316e-01 -5.386617e-01 4.488261e-01 -5.386634e-01 2.543510e-01 -2.873329e-02
2.023600 2.560613e-01 -2.807760e-02 4.465336e-01 -5.398487e-01 4.465279e-01 -5.398504e-01 2.564806e-01 -2.858629e-02
2.025300 2.581888e-01 -2.794786e-02 4.442309e-01 -5.410165e-01 4.442249e-01 -5.410181e-01 2.586071e-01 -2.845704e-02
2.027000 2.603130e-01 -2.783581e-02 4.419236e-01 -5.421650e-01 4.419174e-01 -5.421666e-01 2.607304e-01 -2.834546e-02
2.028700 2.624339e-01 -2.774140e-02 4.396119e-01 -5.432942e-01 4.396056e-01 -5.432958e-01 2.628502e-01 -2.825151e-02
2.030400 2.645513e-01 -2.766454e-02 4.372961e-01 -5.444043e-01 4.372896e-01 -5.444058e-01 2.649666e-01 -2.817511e-02
2.032100 2.666652e-01 -2.760520e-02 4.349764e-01 -5.454952e-01 4.349697e-01 -5.454966e-01 2.670795e-01 -2.811620e-02
2.033800 2.687754e-01 -2.756330e-02 4.326529e-01 -5.465670e-01 4.326460e-01 -5.465683e-01 2.691887e-01 -2.807473e-02
2.035500 2.708819e-01 -2.753878e-02 4.303259e-01 -5.476197e-01 4.303188e-01 -5.476209e-01 2.712942e-01 -2.805063e-02
2.037200 2.729845e-01 -2.753158e-02 4.279955e-01 -5.486532e-01 4.279883e-01 -5.486543e-01 2.733958e-01 -2.804383e-02
2.038900 2.750832e-01 -2.754164e-02 4.256620e-01 -5.496677e-01 4.256546e-01 -5.496687e-01 2.754934e-01 -2.805428e-02
2.040600 2.771779e-01 -2.756889e-02 4.233256e-01 -5.506632e-01 4.233180e-01 -5.506641e-01 2.775871e-01 -2.808192e-02
2.042300 2.792684e-01 -2.761328e-02 4.209863e-01 -5.516397e-01 4.209786e-01 -5.516405e-01 2.796766e-01 -2.812667e-02
2.044000 2.813548e-01 -2.767474e-02 4.186445e-01 -5.525973e-01 4.186366e-01 -5.525980e-01 2.817619e-01 -2.818848e-02
2.045700 2.834368e-01 -2.775319e-02 4.163003e-01 -5.535360e-01 4.162922e-01 -5.535365e-01 2.838428e-01 -2.826728e-02
2.047400 2.855144e-01 -2.784860e-02 4.139538e-01 -5.544558e-01 4.139456e-01 -5.544562e-01 2.859194e-01 -2.836301e-02
2.049100 2.875875e-01 -2.796087e-02 4.116054e-01 -5.553569e-01 4.115970e-01 -5.553571e-01 2.879914e-01 -2.847560e-02
2.050800 2.896560e-01 -2.808997e-02 4.092550e-01 -5.562391e-01 4.092466e-01 -5.562392e-01 2.900588e-01 -2.860499e-02
2.052500 2.917198e-01 -2.823580e-02 4.069031e-01 -5.571026e-01 4.068945e-01 -5.571026e-01 2.921215e-01 -2.875111e-02
2.054200 2.937789e-01 -2.839833e-02 4.045496e-01 -5.579475e-01 4.045409e-01 -5.579473e-01 2.941795e-01 -2.891390e-02
2.055900 2.958330e-01 -2.857747e-02 4.021948e-01 -5.587738e-01 4.021860e-01 -5.587734e-01 2.962325e-01 -2.909329e-02
2.057600 2.978822e-01 -2.877316e-02 3.998388e-01 -5.595815e-01 3.998299e-01 -5.595809e-01 2.982806e-01 -2.928922e-02
2.059300 2.999263e-01 -2.898534e-02 3.974819e-01 -5.603706e-01 3.974729e-01 -5.603699e-01 3.003237e-01 -2.950163e-02
2.061000 3.019653e-01 -2.921394e-02 3.951242e-01 -5.611413e-01 3.951151e-01 -5.611404e-01 3.023615e-01 -2.973043e-02
2.062700 3.039991e-01 -2.945889e-02 3.927658e-01 -5.618936e-01 3.927567e-01 -5.618925e-01 3.043942e-01 -2.997558e-02
2.064400 3.060275e-01 -2.972013e-02 3.904070e-01 -5.626276e-01 3.903977e-01 -5.626263e-01 3.064214e-01 -3.023699e-02
2.066100 3.080505e-01 -2.999758e-02 3.880478e-01 -5.633433e-01 3.880385e-01 -5.633418e-01 3.084433e-01 -3.051461e-02
2.067800 3.100680e-01 -3.029119e-02 3.856885e-01 -5.640407e-01 3.856792e-01 -5.640390e-01 3.104597e-01 -3.080836e-02
2.069500 3.120798e-01 -3.060089e-02 3.833292e-01 -5.647200e-01 3.833199e-01 -5.647181e-01 3.124704e-01 -3.111818e-02
2.071200 3.140861e-01 -3.092660e-02 3.809701e-01 -5.653812e-01 3.809607e-01 -5.653791e-01 3.144755e-01 -3.144400e-02
2.072900 3.160865e-01 -3.126825e-02 3.786113e-01 -5.660244e-01 3.786019e-01 -5.660221e-01 3.164748e-01 -3.178574e-02
2.074600 3.180810e-01 -3.162579e-02 3.762530e-01 -5.666495e-01 3.762436e-01 -5.666470e-01 3.184682e-01 -3.214336e-02
2.076300 3.200697e-01 -3.199913e-02 3.738954e-01 -5.672568e-01 3.738860e-01 -5.672541e-01 3.204557e-01 -3.251676e-02
2.078000 3.220523e-01 -3.238822e-02 3.715385e-01 -5.678462e-01 3.715291e-01 -5.678433e-01 3.224372e-01 -3.290588e-02
2.079700 3.240287e-01 -3.279297e-02 3.691826e-01 -5.684178e-01 3.691732e-01 -5.684147e-01 3.244125e-01 -3.331066e-02
2.081400 3.259990e-01 -3.321333e-02 3.668278e-01 -5.689717e-01 3.668184e-01 -5.689684e-01 3.263817e-01 -3.373103e-02
2.083100 3.279630e-01 -3.364922e-02 3.644741e-01 -5.695080e-01 3.644648e-01 -5.695045e-01 3.283445e-01 -3.416690e-02
2.084800 3.299206e-01 -3.410057e-02 3.621219e-01 -5.700267e-01 3.621126e-01 -5.700230e-01 3.303010e-01 -3.461822e-02
2.086500 3.318718e-01 -3.456730e-02 3.597712e-01 -5.705279e-01 3.597620e-01 -5.705240e-01 3.322510e-01 -3.508491e-02
2.088200 3.338164e-01 -3.504936e-02 3.574222e-01 -5.710117e-01 3.574130e-01 -5.710076e-01 3.341945e-01 -3.556690e-02
2.089900 3.357544e-01 -3.554666e-02 3.550749e-01 -5.714781e-01 3.550658e-01 -5.714738e-01 3.361314e-01 -3.606412e-02
2.091600 3.376858e-01 -3.605914e-02 3.527296e-01 -5.719273e-01 3.527206e-01 -5.719227e-01 3.380616e-01 -3.657649e-02
2.093300 3.396103e-01 -3.658672e-02 3.503864e-01 -5.723592e-01 3.503774e-01 -5.723544e-01 3.399850e-01 -3.710395e-02
2.095000 3.415280e-01 -3.712933e-02 3.480454e-01 -5.727740e-01 3.480365e-01 -5.727690e-01 3.419016e-01 -3.764643e-02
2.096700 3.434387e-01 -3.768691e-02 3.457067e-01 -5.731717e-01 3.456979e-01 -5.731666e-01 3.438112e-01 -3.820385e-02
2.098400 3.453425e-01 -3.825937e-02 3.433705e-01 -5.735525e-01 3.433619e-01 -5.735471e-01 3.457138e-01 -3.877613e-02
2.100100 3.472391e-01 -3.884664e-02 3.410369e-01 -5.739163e-01 3.410284e-01 -5.739107e-01 3.476093e-01 -3.936321e-02
2.101800 3.491286e-01 -3.944865e-02 3.387061e-01 -5.742633e-01 3.386977e-01 -5.742576e-01 3.494977e-01 -3.996502e-02
2.103500 3.510108e-01 -4.006534e-02 3.363781e-01 -5.745936e-01 3.363698e-01 -5.745876e-01 3.513788e-01 -4.058147e-02
2.105200 3.528857e-01 -4.069662e-02 3.340530e-01 -5.749072e-01 3.340449e-01 -5.749010e-01 3.532526e-01 -4.121250e-02
2.106900 3.547532e-01 -4.134242e-02 3.317311e-01 -5.752041e-01 3.317232e-01 -5.751978e-01 3.551189e-01 -4.185804e-02
2.108600 3.566132e-01 -4.200266e-02 3.294125e-01 -5.754846e-01 3.294047e-01 -5.754781e-01 3.569779e-01 -4.251800e-02
2.110300 3.584657e-01 -4.267729e-02 3.270971e-01 -5.757486e-01 3.270895e-01 -5.757419e-01 3.588292e-01 -4.319232e-02
2.112000 3.603105e-01 -4.336621e-02 3.247853e-01 -5.759963e-01 3.247779e-01 -5.759894e-01 3.606730e-01 -4.388092e-02
2.113700 3.621476e-01 -4.406935e-02 3.224770e-01 -5.762277e-01 3.224698e-01 -5.762206e-01 3.625090e-01 -4.458372e-02
2.115400 3.639770e-01 -4.478665e-02 3.201725e-01 -5.764428e-01 3.201654e-01 -5.764357e-01 3.643373e-01 -4.530066e-02
2.117100 3.657986e-01 -4.551802e-02 3.178717e-01 -5.766419e-01 3.178649e-01 -5.766346e-01 3.661578e-01 -4.603166e-02
2.118800 3.676122e-01 -4.626340e-02 3.155749e-01 -5.768249e-01 3.155683e-01 -5.768174e-01 3.679703e-01 -4.677664e-02
2.120500 3.694178e-01 -4.702270e-02 3.132821e-01 -5.769920e-01 3.132757e-01 -5.769844e-01 3.697749e-01 -4.753553e-02
2.122200 3.712154e-01 -4.779585e-02 3.109935e-01 -5.771432e-01 3.109873e-01 -5.771354e-01 3.715715e-01 -4.830825e-02
2.123900 3.730049e-01 -4.858278e-02 3.087092e-01 -5.772787e-01 3.087032e-01 -5.772707e-01 3.733599e-01 -4.909473e-02
2.125600 3.747862e-01 -4.938341e-02 3.064292e-01 -5.773984e-01 3.064235e-01 -5.773903e-01 3.751401e-01 -4.989490e-02
2.127300 3.765592e-01 -5.019767e-02 3.041537e-01 -5.775025e-01 3.041482e-01 -5.774943e-01 3.769121e-01 -5.070867e-02
2.129000 3.783239e-01 -5.102547e-02 3.018827e-01 -5.775910e-01 3.018776e-01 -5.775827e-01 3.786757e-01 -5.153597e-02
2.130700 3.800802e-01 -5.186675e-02 2.996165e-01 -5.776641e-01 2.996116e-01 -5.776557e-01 3.804310e-01 -5.237674e-02
2.132400 3.818280e-01 -5.272143e-02 2.973550e-01 -5.777218e-01 2.973504e-01 -5.777133e-01 3.821779e-01 -5.323088e-02
2.134100 3.835674e-01 -5.358944e-02 2.950985e-01 -5.777643e-01 2.950941e-01 -5.777557e-01 3.839162e-01 -5.409833e-02
2.135800 3.852981e-01 -5.447069e-02 2.928469e-01 -5.777915e-01 2.928428e-01 -5.777828e-01 3.856459e-01 -5.497901e-02
2.137500 3.870202e-01 -5.536511e-02 2.906004e-01 -5.778036e-01 2.905966e-01 -5.777948e-01 3.873670e-01 -5.587284e-02
2.139200 3.887335e-01 -5.627263e-02 2.883591e-01 -5.778007e-01 2.883555e-01 -5.777918e-01 3.890794e-01 -5.677975e-02
2.140900 3.904381e-01 -5.719317e-02 2.861230e-01 -5.777828e-01 2.861198e-01 -5.777739e-01 3.907830e-01 -5.769967e-02
2.142600 3.921339e-01 -5.812666e-02 2.838924e-01 -5.777501e-01 2.838894e-01 -5.777411e-01 3.924777e-01 -5.863251e-02
2.144300 3.938207e-01 -5.907301e-02 2.816672e-01 -5.777026e-01 2.816645e-01 -5.776935e-01 3.941636e-01 -5.957820e-02
2.146000 3.954986e-01 -6.003215e-02 2.794475e-01 -5.776404e-01 2.794452e-01 -5.776313e-01 3.958406e-01 -6.053666e-02
2.147700 3.971674e-01 -6.100401e-02 2.772335e-01 -5.775635e-01 2.772315e-01 -5.775544e-01 3.975085e-01 -6.150783e-02
2.149400 3.988271e-01 -6.198851e-02 2.750252e-01 -5.774722e-01 2.750235e-01 -5.774631e-01 3.991673e-01 -6.249162e-02
2.151100 4.004778e-01 -6.298557e-02 2.728228e-01 -5.773664e-01 2.728214e-01 -5.773572e-01 4.008170e-01 -6.348795e-02
2.152800 4.021192e-01 -6.399511e-02 2.706263e-01 -5.772463e-01 2.706252e-01 -5.772371e-01 4.024575e-01 -6.449675e-02
2.154500 4.037513e-01 -6.501707e-02 2.684357e-01 -5.771119e-01 2.684350e-01 -5.771027e-01 4.040887e-01 -6.551795e-02
2.156200 4.053741e-01 -6.605136e-02 2.662513e-01 -5.769633e-01 2.662508e-01 -5.769541e-01 4.057107e-01 -6.655147e-02
2.157900 4.069876e-01 -6.709792e-02 2.640730e-01 -5.768006e-01 2.640729e-01 -5.767914e-01 4.073233e-01 -6.759723e-02
2.159600 4.085916e-01 -6.815665e-02 2.619009e-01 -5.766239e-01 2.619012e-01 -5.766148e-01 4.089264e-01 -6.865515e-02
2.161300 4.101861e-01 -6.922749e-02 2.597352e-01 -5.764333e-01 2.597358e-01 -5.764242e-01 4.105201e-01 -6.972517e-02
2.163000 4.117711e-01 -7.031036e-02 2.575759e-01 -5.762288e-01 2.575768e-01 -5.762197e-01 4.121042e-01 -7.080719e-02
2.164700 4.133465e-01 -7.140518e-02 2.554231e-01 -5.760106e-01 2.554243e-01 -5.760016e-01 4.136788e-01 -7.190116e-02
2.166400 4.149122e-01 -7.251188e-02 2.532769e-01 -5.757787e-01 2.532784e-01 -5.757697e-01 4.152437e-01 -7.300699e-02
2.168100 4.164682e-01 -7.363038e-02 2.511372e-01 -5.755332e-01 2.511392e-01 -5.755243e-01 4.167989e-01 -7.412461e-02
2.169800 4.180145e-01 -7.476061e-02 2.490044e-01 -5.752742e-01 2.490066e-01 -5.752654e-01 4.183444e-01 -7.525393e-02
2.171500 4.195509e-01 -7.590249e-02 2.468783e-01 -5.750018e-01 2.468809e-01 -5.749931e-01 4.198800e-01 -7.639489e-02
2.173200 4.210775e-01 -7.705594e-02 2.447591e-01 -5.747161e-01 2.447620e-01 -5.747075e-01 4.214058e-01 -7.754741e-02
2.174900 4.225941e-01 -7.822089e-02 2.426468e-01 -5.744171e-01 2.426500e-01 -5.744086e-01 4.229217e-01 -7.871142e-02
2.176600 4.241008e-01 -7.939726e-02 2.405415e-01 -5.741050e-01 2.405451e-01 -5.740966e-01 4.244277e-01 -7.988683e-02
2.178300 4.255975e-01 -8.058498e-02 2.384433e-01 -5.737798e-01 2.384473e-01 -5.737715e-01 4.259237e-01 -8.107357e-02
2.180000 4.270841e-01 -8.178397e-02 2.363523e-01 -5.734416e-01 2.363566e-01 -5.734334e-01 4.274095e-01 -8.227157e-02
2.181700 4.285606e-01 -8.299416e-02 2.342685e-01 -5.730905e-01 2.342731e-01 -5.730825e-01 4.288853e-01 -8.348076e-02
2.183400 4.300269e-01 -8.421547e-02 2.321920e-01 -5.727266e-01 2.321969e-01 -5.727187e-01 4.303510e-01 -8.470105e-02
2.185100 4.314830e-01 -8.544782e-02 2.301229e-01 -5.723500e-01 2.301281e-01 -5.723422e-01 4.318064e-01 -8.593237e-02
2.186800 4.329289e-01 -8.669114e-02 2.280612e-01 -5.719607e-01 2.280667e-01 -5.719531e-01 4.332516e-01 -8.717464e-02
2.188500 4.343644e-01 -8.794536e-02 2.260069e-01 -5.715588e-01 2.260128e-01 -5.715514e-01 4.346865e-01 -8.842780e-02
2.190200 4.357896e-01 -8.921039e-02 2.239603e-01 -5.711444e-01 2.239665e-01 -5.711372e-01 4.361110e-01 -8.969176e-02
2.191900 4.372043e-01 -9.048617e-02 2.219212e-01 -5.707177e-01 2.219277e-01 -5.707106e-01 4.375252e-01 -9.096646e-02
2.193600 4.386087e-01 -9.177262e-02 2.198899e-01 -5.702786e-01 2.198967e-01 -5.702717e-01 4.389289e-01 -9.225181e-02
2.195300 4.400025e-01 -9.306967e-02 2.178662e-01 -5.698273e-01 2.178734e-01 -5.698206e-01 4.403222e-01 -9.354774e-02
2.197000 4.413858e-01 -9.437724e-02 2.158504e-01 -5.693639e-01 2.158579e-01 -5.693574e-01 4.417049e-01 -9.485418e-02
2.198700 4.427585e-01 -9.569525e-02 2.138425e-01 -5.688884e-01 2.138502e-01 -5.688821e-01 4.430770e-01 -9.617106e-02
2.200400 4.441206e-01 -9.702363e-02 2.118425e-01 -5.684009e-01 2.118505e-01 -5.683948e-01 4.444385e-01 -9.749829e-02
2.202100 4.454720e-01 -9.836231e-02 2.098505e-01 -5.679015e-01 2.098588e-01 -5.678957e-01 4.457894e-01 -9.883581e-02
2.203800 4.468127e-01 -9.971122e-02 2.078665e-01 -5.673903e-01 2.078751e-01 -5.673847e-01 4.471296e-01 -1.001835e-01
2.205500 4.481426e-01 -1.010703e-01 2.058906e-01 -5.668673e-01 2.058995e-01 -5.668620e-01 4.484590e-01 -1.015414e-01
2.207200 4.494617e-01 -1.024394e-01 2.039229e-01 -5.663327e-01 2.039321e-01 -5.663276e-01 4.497777e-01 -1.029093e-01
2.208900 4.507700e-01 -1.038185e-01 2.019634e-01 -5.657866e-01 2.019728e-01 -5.657817e-01 4.510855e-01 -1.042873e-01
2.210600 4.520674e-01 -1.052076e-01 2.000121e-01 -5.652289e-01 2.000218e-01 -5.652243e-01 4.523824e-01 -1.056751e-01
2.212300 4.533539e-01 -1.066065e-01 1.980692e-01 -5.646599e-01 1.980792e-01 -5.646555e-01 4.536685e-01 -1.070728e-01
2.214000 4.546294e-01 -1.080152e-01 1.961347e-01 -5.640795e-01 1.961449e-01 -5.640754e-01 4.549435e-01 -1.084802e-01
2.215700 4.558939e-01 -1.094336e-01 1.942086e-01 -5.634879e-01 1.942190e-01 -5.634841e-01 4.562076e-01 -1.098974e-01
2.217400 4.571474e-01 -1.108616e-01 1.922909e-01 -5.628851e-01 1.923017e-01 -5.628816e-01 4.574607e-01 -1.113241e-01
2.219100 4.583897e-01 -1.122992e-01 1.903818e-01 -5.622712e-01 1.903928e-01 -5.622680e-01 4.587027e-01 -1.127605e-01
2.220800 4.596210e-01 -1.137463e-01 1.884813e-01 -5.616463e-01 1.884925e-01 -5.616434e-01 4.599336e-01 -1.142063e-01
2.222500 4.608410e-01 -1.152028e-01 1.865895e-01 -5.610106e-01 1.866009e-01 -5.610080e-01 4.611533e-01 -1.156615e-01
2.224200 4.620499e-01 -1.166687e-01 1.847063e-01 -5.603639e-01 1.847179e-01 -5.603616e-01 4.623618e-01 -1.171260e-01
2.225900 4.632476e-01 -1.181438e-01 1.828318e-01 -5.597066e-01 1.828437e-01 -5.597046e-01 4.635592e-01 -1.185998e-01
2.227600 4.644339e-01 -1.196281e-01 1.809662e-01 -5.590385e-01 1.809782e-01 -5.590368e-01 4.647452e-01 -1.200828e-01
2.229300 4.656090e-01 -1.211216e-01 1.791093e-01 -5.583598e-01 1.791216e-01 -5.583585e-01 4.659200e-01 -1.215749e-01
2.231000 4.667726e-01 -1.226241e-01 1.772614e-01 -5.576707e-01 1.772738e-01 -5.576696e-01 4.670834e-01 -1.230761e-01
2.232700 4.679249e-01 -1.241356e-01 1.754223e-01 -5.569710e-01 1.754349e-01 -5.569703e-01 4.682354e-01 -1.245862e-01
2.234400 4.690658e-01 -1.256560e-01 1.735923e-01 -5.562611e-01 1.736050e-01 -5.562606e-01 4.693760e-01 -1.261052e-01
2.236100 4.701952e-01 -1.271852e-01 1.717712e-01 -5.555408e-01 1.717841e-01 -5.555407e-01 4.705052e-01 -1.276331e-01
2.237800 4.713131e-01 -1.287232e-01 1.699592e-01 -5.548103e-01 1.699723e-01 -5.548106e-01 4.716229e-01 -1.291697e-01
2.239500 4.724195e-01 -1.302699e-01 1.681564e-01 -5.540697e-01 1.681696e-01 -5.540703e-01 4.727291e-01 -1.307150e-01
2.241200 4.735143e-01 -1.318253e-01 1.663626e-01 -5.533191e-01 1.663760e-01 -5.533200e-01 4.738237e-01 -1.322690e-01
2.242900 4.745975e-01 -1.333891e-01 1.645781e-01 -5.525585e-01 1.645916e-01 -5.525597e-01 4.749067e-01 -1.338314e-01
2.244600 4.756691e-01 -1.349615e-01 1.628028e-01 -5.517880e-01 1.628164e-01 -5.517895e-01 4.759781e-01 -1.354024e-01
2.246300 4.767289e-01 -1.365423e-01 1.610368e-01 -5.510076e-01 1.610505e-01 -5.510095e-01 4.770379e-01 -1.369817e-01
2.248000 4.777771e-01 -1.381315e-01 1.592801e-01 -5.502176e-01 1.592939e-01 -5.502198e-01 4.780860e-01 -1.385694e-01
2.249700 4.788136e-01 -1.397289e-01 1.575327e-01 -5.494179e-01 1.575466e-01 -5.494204e-01 4.791223e-01 -1.401654e-01
2.251400 4.798382e-01 -1.413345e-01 1.557948e-01 -5.486085e-01 1.558088e-01 -5.486115e-01 4.801469e-01 -1.417696e-01
2.253100 4.808511e-01 -1.429482e-01 1.540663e-01 -5.477897e-01 1.540803e-01 -5.477930e-01 4.811596e-01 -1.433818e-01
2.254800 4.818521e-01 -1.445700e-01 1.523473e-01 -5.469615e-01 1.523614e-01 -5.469651e-01 4.821606e-01 -1.450022e-01
2.256500 4.828412e-01 -1.461998e-01 1.506378e-01 -5.461239e-01 1.506519e-01 -5.461278e-01 4.831497e-01 -1.466305e-01
2.258200 4.838184e-01 -1.478376e-01 1.489378e-01 -5.452770e-01 1.489521e-01 -5.452813e-01 4.841269e-01 -1.482668e-01
2.259900 4.847837e-01 -1.494832e-01 1.472475e-01 -5.444209e-01 1.472618e-01 -5.444255e-01 4.850922e-01 -1.499108e-01
2.261600 4.857370e-01 -1.511365e-01 1.455668e-01 -5.435557e-01 1.455811e-01 -5.435607e-01 4.860455e-01 -1.515627e-01
2.263300 4.866783e-01 -1.527976e-01 1.438958e-01 -5.426814e-01 1.439101e-01 -5.426867e-01 4.869868e-01 -1.532223e-01
2.265000 4.876076e-01 -1.544664e-01 1.422345e-01 -5.417982e-01 1.422488e-01 -5.418038e-01 4.879161e-01 -1.548895e-01
2.266700 4.885248e-01 -1.561427e-01 1.405829e-01 -5.409060e-01 1.405973e-01 -5.409120e-01 4.888334e-01 -1.565643e-01
2.268400 4.894299e-01 -1.578265e-01 1.389412e-01 -5.400051e-01 1.389555e-01 -5.400114e-01 4.897386e-01 -1.582466e-01
2.270100 4.903229e-01 -1.595178e-01 1.373092e-01 -5.390953e-01 1.373235e-01 -5.391019e-01 4.906316e-01 -1.599363e-01
2.271800 4.912037e-01 -1.612164e-01 1.356871e-01 -5.381769e-01 1.357014e-01 -5.381838e-01 4.915125e-01 -1.616334e-01
2.273500 4.920723e-01 -1.629224e-01 1.340749e-01 -5.372499e-01 1.340892e-01 -5.372571e-01 4.923813e-01 -1.633378e-01
2.275200 4.929287e-01 -1.646356e-01 1.324727e-01 -5.363143e-01 1.324869e-01 -5.363219e-01 4.932378e-01 -1.650494e-01
2.276900 4.937729e-01 -1.663559e-01 1.308804e-01 -5.353703e-01 1.308945e-01 -5.353782e-01 4.940821e-01 -1.667682e-01
2.278600 4.946047e-01 -1.680834e-01 1.292981e-01 -5.344179e-01 1.293122e-01 -5.344261e-01 4.949141e-01 -1.684941e-01
2.280300 4.954243e-01 -1.698178e-01 1.277258e-01 -5.334572e-01 1.277398e-01 -5.334657e-01 4.957338e-01 -1.702270e-01
2.282000 4.962315e-01 -1.715593e-01 1.261636e-01 -5.324883e-01 1.261776e-01 -5.324970e-01 4.965412e-01 -1.719669e-01
2.283700 4.970263e-01 -1.733076e-01 1.246115e-01 -5.315111e-01 1.246254e-01 -5.315202e-01 4.973363e-01 -1.737136e-01
2.285400 4.978087e-01 -1.750628e-01 1.230695e-01 -5.305259e-01 1.230833e-01 -5.305353e-01 4.981189e-01 -1.754672e-01
2.287100 4.985787e-01 -1.768247e-01 1.215377e-01 -5.295327e-01 1.215514e-01 -5.295423e-01 4.988892e-01 -1.772275e-01
2.288800 4.993363e-01 -1.785933e-01 1.200161e-01 -5.285315e-01 1.200297e-01 -5.285414e-01 4.996470e-01 -1.789945e-01
2.290500 5.000813e-01 -1.803686e-01 1.185048e-01 -5.275224e-01 1.185182e-01 -5.275326e-01 5.003923e-01 -1.807681e-01
2.292200 5.008138e-01 -1.821504e-01 1.170037e-01 -5.265056e-01 1.170170e-01 -5.265160e-01 5.011251e-01 -1.825483e-01
2.293900 5.015338e-01 -1.839387e-01 1.155129e-01 -5.254809e-01 1.155261e-01 -5.254916e-01 5.018454e-01 -1.843350e-01
2.295600 5.022412e-01 -1.857334e-01 1.140324e-01 -5.244487e-01 1.140455e-01 -5.244596e-01 5.025531e-01 -1.861281e-01
2.297300 5.029360e-01 -1.875345e-01 1.125623e-01 -5.234088e-01 1.125752e-01 -5.234200e-01 5.032482e-01 -1.879275e-01
2.299000 5.036182e-01 -1.893419e-01 1.111025e-01 -5.223614e-01 1.111153e-01 -5.223728e-01 5.039307e-01 -1.897333e-01
2.300700 5.042877e-01 -1.911555e-01 1.096532e-01 -5.213066e-01 1.096658e-01 -5.213182e-01 5.046006e-01 -1.915452e-01
2.302400 5.049444e-01 -1.929753e-01 1.082144e-01 -5.202444e-01 1.082268e-01 -5.202562e-01 5.052578e-01 -1.933633e-01
2.304100 5.055885e-01 -1.948011e-01 1.067860e-01 -5.191748e-01 1.067983e-01 -5.191869e-01 5.059023e-01 -1.951875e-01
2.305800 5.062199e-01 -1.966330e-01 1.053681e-01 -5.180981e-01 1.053802e-01 -5.181104e-01 5.065340e-01 -1.970177e-01
2.307500 5.068384e-01 -1.984708e-01 1.039608e-01 -5.170142e-01 1.039727e-01 -5.170266e-01 5.071530e-01 -1.988538e-01
2.309200 5.074442e-01 -2.003145e-01 1.025640e-01 -5.159231e-01 1.025757e-01 -5.159358e-01 5.077592e-01 -2.006959e-01
2.310900 5.080371e-01 -2.021641e-01 1.011779e-01 -5.148251e-01 1.011894e-01 -5.148379e-01 5.083525e-01 -2.025437e-01
2.312600 5.086171e-01 -2.040194e-01 9.980235e-02 -5.137201e-01 9.981366e-02 -5.137331e-01 5.089331e-01 -2.043973e-01
2.314300 5.091843e-01 -2.058803e-01 9.843749e-02 -5.126082e-01 9.844859e-02 -5.126214e-01 5.095007e-01 -2.062566e-01
2.316000 5.097385e-01 -2.077470e-01 9.708331e-02 -5.114895e-01 9.709420e-02 -5.115028e-01 5.100555e-01 -2.081215e-01
2.317700 5.102798e-01 -2.096191e-01 9.573985e-02 -5.103640e-01 9.575051e-02 -5.103775e-01 5.105973e-01 -2.099920e-01
2.319400 5.108082e-01 -2.114968e-01 9.440713e-02 -5.092319e-01 9.441757e-02 -5.092455e-01 5.111262e-01 -2.118680e-01
2.321100 5.113235e-01 -2.133799e-01 9.308519e-02 -5.080932e-01 9.309540e-02 -5.081068e-01 5.116421e-01 -2.137493e-01
2.322800 5.118258e-01 -2.152683e-01 9.177404e-02 -5.069479e-01 9.178402e-02 -5.069617e-01 5.121449e-01 -2.156361e-01
2.324500 5.123150e-01 -2.171621e-01 9.047373e-02 -5.057961e-01 9.048347e-02 -5.058100e-01 5.126348e-01 -2.175281e-01
2.326200 5.127912e-01 -2.190610e-01 8.918427e-02 -5.046380e-01 8.919377e-02 -5.046520e-01 5.131115e-01 -2.194253e-01
2.327900 5.132543e-01 -2.209652e-01 8.790570e-02 -5.034735e-01 8.791496e-02 -5.034876e-01 5.135752e-01 -2.213277e-01
2.329600 5.137042e-01 -2.228744e-01 8.663804e-02 -5.023028e-01 8.664705e-02 -5.023169e-01 5.140258e-01 -2.232352e-01
2.331300 5.141409e-01 -2.247886e-01 8.538132e-02 -5.011258e-01 8.539008e-02 -5.011400e-01 5.144632e-01 -2.251477e-01
2.333000 5.145645e-01 -2.267078e-01 8.413557e-02 -4.999428e-01 8.414407e-02 -4.999570e-01 5.148874e-01 -2.270651e-01
2.334700 5.149749e-01 -2.286319e-01 8.290081e-02 -4.987537e-01 8.290906e-02 -4.987679e-01 5.152984e-01 -2.289875e-01
2.336400 5.153720e-01 -2.305609e-01 8.167707e-02 -4.975586e-01 8.168506e-02 -4.975728e-01 5.156962e-01 -2.309147e-01
2.338100 5.157558e-01 -2.324946e-01 8.046438e-02 -4.963576e-01 8.047211e-02 -4.963718e-01 5.160807e-01 -2.328466e-01
2.339800 5.161263e-01 -2.344330e-01 7.926277e-02 -4.951507e-01 7.927023e-02 -4.951650e-01 5.164520e-01 -2.347832e-01
2.341500 5.164835e-01 -2.363760e-01 7.807225e-02 -4.939381e-01 7.807945e-02 -4.939523e-01 5.168099e-01 -2.367245e-01
2.343200 5.168274e-01 -2.383236e-01 7.689286e-02 -4.927197e-01 7.689979e-02 -4.927339e-01 5.171545e-01 -2.386703e-01
2.344900 5.171578e-01 -2.402756e-01 7.572462e-02 -4.914957e-01 7.573129e-02 -4.915099e-01 5.174858e-01 -2.406206e-01
2.346600 5.174749e-01 -2.422321e-01 7.456757e-02 -4.902662e-01 7.457397e-02 -4.902803e-01 5.178036e-01 -2.425753e-01
2.348300 5.177785e-01 -2.441930e-01 7.342172e-02 -4.890311e-01 7.342785e-02 -4.890451e-01 5.181080e-01 -2.445344e-01
2.350000 5.180686e-01 -2.461582e-01 7.228710e-02 -4.877906e-01 7.229297e-02 -4.878046e-01 5.183990e-01 -2.464977e-01
2.351700 5.183453e-01 -2.481276e-01 7.116374e-02 -4.865447e-01 7.116934e-02 -4.865586e-01 5.186765e-01 -2.484653e-01
2.353400 5.186085e-01 -2.501011e-01 7.005166e-02 -4.852936e-01 7.005700e-02 -4.853073e-01 5.189405e-01 -2.504371e-01
2.355100 5.188581e-01 -2.520788e-01 6.895089e-02 -4.840372e-01 6.895597e-02 -4.840508e-01 5.191910e-01 -2.524129e-01
2.356800 5.190941e-01 -2.540605e-01 6.786145e-02 -4.827756e-01 6.786627e-02 -4.827891e-01 5.194279e-01 -2.543928e-01
2.358500 5.193165e-01 -2.560461e-01 6.678338e-02 -4.815090e-01 6.678794e-02 -4.815223e-01 5.196512e-01 -2.563766e-01
2.360200 5.195253e-01 -2.580356e-01 6.571668e-02 -4.802373e-01 6.572099e-02 -4.802505e-01 5.198610e-01 -2.583643e-01
2.361900 5.197205e-01 -2.600290e-01 6.466140e-02 -4.789607e-01 6.466545e-02 -4.789737e-01 5.200571e-01 -2.603558e-01
2.363600 5.199020e-01 -2.620261e-01 6.361756e-02 -4.776792e-01 6.362136e-02 -4.776920e-01 5.202395e-01 -2.623511e-01
2.365300 5.200697e-01 -2.640269e-01 6.258517e-02 -4.763929e-01 6.258872e-02 -4.764055e-01 5.204082e-01 -2.643501e-01
2.367000 5.202238e-01 -2.660314e-01 6.156427e-02 -4.751018e-01 6.156758e-02 -4.751142e-01 5.205633e-01 -2.663527e-01
2.368700 5.203641e-01 -2.680393e-01 6.055488e-02 -4.738060e-01 6.055795e-02 -4.738182e-01 5.207045e-01 -2.683588e-01
2.370400 5.204906e-01 -2.700508e-01 5.955703e-02 -4.725057e-01 5.955986e-02 -4.725176e-01 5.208321e-01 -2.703684e-01
2.372100 5.206032e-01 -2.720657e-01 5.857073e-02 -4.712008e-01 5.857333e-02 -4.712124e-01 5.209458e-01 -2.723815e-01
2.373800 5.207021e-01 -2.740839e-01 5.759602e-02 -4.698914e-01 5.759839e-02 -4.699028e-01 5.210457e-01 -2.743979e-01
2.375500 5.207870e-01 -2.761055e-01 5.663292e-02 -4.685776e-01 5.663507e-02 -4.685887e-01 5.211317e-01 -2.764175e-01
2.377200 5.208581e-01 -2.781302e-01 5.568145e-02 -4.672595e-01 5.568338e-02 -4.672703e-01 5.212039e-01 -2.784404e-01
2.378900 5.209153e-01 -2.801581e-01 5.474164e-02 -4.659371e-01 5.474336e-02 -4.659477e-01 5.212621e-01 -2.804664e-01
2.380600 5.209585e-01 -2.821890e-01 5.381351e-02 -4.646105e-01 5.381503e-02 -4.646208e-01 5.213064e-01 -2.824955e-01
2.382300 5.209877e-01 -2.842230e-01 5.289708e-02 -4.632798e-01 5.289841e-02 -4.632898e-01 5.213368e-01 -2.845276e-01
2.384000 5.210029e-01 -2.862599e-01 5.199239e-02 -4.619451e-01 5.199352e-02 -4.619547e-01 5.213532e-01 -2.865626e-01
2.385700 5.210041e-01 -2.882997e-01 5.109945e-02 -4.606064e-01 5.110040e-02 -4.606156e-01 5.213555e-01 -2.886005e-01
2.387400 5.209912e-01 -2.903422e-01 5.021829e-02 -4.592637e-01 5.021906e-02 -4.592726e-01 5.213439e-01 -2.906411e-01
2.389100 5.209643e-01 -2.923875e-01 4.934893e-02 -4.579172e-01 4.934954e-02 -4.579257e-01 5.213181e-01 -2.926845e-01
2.390800 5.209232e-01 -2.944355e-01 4.849139e-02 -4.565670e-01 4.849185e-02 -4.565751e-01 5.212783e-01 -2.947306e-01
2.392500 5.208680e-01 -2.964860e-01 4.764571e-02 -4.552130e-01 4.764601e-02 -4.552207e-01 5.212243e-01 -2.967792e-01
2.394200 5.207987e-01 -2.985390e-01 4.681190e-02 -4.538554e-01 4.681206e-02 -4.538627e-01 5.211562e-01 -2.988303e-01
2.395900 5.207151e-01 -3.005945e-01 4.598998e-02 -4.524942e-01 4.599001e-02 -4.525011e-01 5.210739e-01 -3.008839e-01
2.397600 5.206173e-01 -3.026524e-01 4.517999e-02 -4.511296e-01 4.517990e-02 -4.511360e-01 5.209775e-01 -3.029399e-01
2.399300 5.205053e-01 -3.047126e-01 4.438194e-02 -4.497615e-01 4.438173e-02 -4.497675e-01 5.208668e-01 -3.049981e-01
2.401000 5.203790e-01 -3.067750e-01 4.359585e-02 -4.483901e-01 4.359555e-02 -4.483956e-01 5.207418e-01 -3.070586e-01
2.402700 5.202384e-01 -3.088395e-01 4.282176e-02 -4.470154e-01 4.282136e-02 -4.470204e-01 5.206026e-01 -3.091212e-01
2.404400 5.200834e-01 -3.109062e-01 4.205967e-02 -4.456375e-01 4.205920e-02 -4.456421e-01 5.204490e-01 -3.111859e-01
2.406100 5.199142e-01 -3.129748e-01 4.130963e-02 -4.442565e-01 4.130909e-02 -4.442605e-01 5.202811e-01 -3.132526e-01
2.407800 5.197305e-01 -3.150454e-01 4.057164e-02 -4.428724e-01 4.057105e-02 -4.428759e-01 5.200989e-01 -3.153213e-01
2.409500 5.195324e-01 -3.171179e-01 3.984574e-02 -4.414853e-01 3.984510e-02 -4.414883e-01 5.199022e-01 -3.173918e-01
2.411200 5.193199e-01 -3.191921e-01 3.913194e-02 -4.400953e-01 3.913126e-02 -4.400978e-01 5.196912e-01 -3.194641e-01
2.412900 5.190929e-01 -3.212681e-01 3.843026e-02 -4.387025e-01 3.842957e-02 -4.387045e-01 5.194656e-01 -3.215381e-01
2.414600 5.188515e-01 -3.233457e-01 3.774074e-02 -4.373068e-01 3.774004e-02 -4.373083e-01 5.192257e-01 -3.236138e-01
2.416300 5.185955e-01 -3.254249e-01 3.706339e-02 -4.359085e-01 3.706269e-02 -4.359095e-01 5.189712e-01 -3.256910e-01
2.418000 5.183249e-01 -3.275056e-01 3.639823e-02 -4.345076e-01 3.639756e-02 -4.345080e-01 5.187022e-01 -3.277697e-01
2.419700 5.180398e-01 -3.295877e-01 3.574529e-02 -4.331041e-01 3.574465e-02 -4.331039e-01 5.184187e-01 -3.298499e-01
2.421400 5.177401e-01 -3.316711e-01 3.510459e-02 -4.316982e-01 3.510399e-02 -4.316974e-01 5.181206e-01 -3.319313e-01
2.423100 5.174258e-01 -3.337558e-01 3.447615e-02 -4.302898e-01 3.447561e-02 -4.302885e-01 5.178078e-01 -3.340141e-01
2.424800 5.170968e-01 -3.358418e-01 3.385999e-02 -4.288792e-01 3.385953e-02 -4.288772e-01 5.174805e-01 -3.360980e-01
2.426500 5.167532e-01 -3.379288e-01 3.325613e-02 -4.274662e-01 3.325577e-02 -4.274637e-01 5.171385e-01 -3.381831e-01
2.428200 5.163948e-01 -3.400169e-01 3.266460e-02 -4.260511e-01 3.266434e-02 -4.260480e-01 5.167818e-01 -3.402692e-01
2.429900 5.160217e-01 -3.421059e-01 3.208542e-02 -4.246339e-01 3.208528e-02 -4.246302e-01 5.164104e-01 -3.423562e-01
2.431600 5.156339e-01 -3.441958e-01 3.151861e-02 -4.232147e-01 3.151861e-02 -4.232103e-01 5.160242e-01 -3.444442e-01
2.433300 5.152313e-01 -3.462865e-01 3.096419e-02 -4.217936e-01 3.096434e-02 -4.217886e-01 5.156233e-01 -3.465329e-01
2.435000 5.148138e-01 -3.483780e-01 3.042218e-02 -4.203705e-01 3.042249e-02 -4.203649e-01 5.152077e-01 -3.486224e-01
2.436700 5.143816e-01 -3.504701e-01 2.989260e-02 -4.189457e-01 2.989310e-02 -4.189394e-01 5.147772e-01 -3.507125e-01
2.438400 5.139344e-01 -3.525628e-01 2.937547e-02 -4.175191e-01 2.937617e-02 -4.175122e-01 5.143318e-01 -3.528031e-01
2.440000 5.135000e-01 -3.545328e-01 2.890016e-02 -4.161750e-01 2.890106e-02 -4.161675e-01 5.138991e-01 -3.547713e-01
2.440100 5.134724e-01 -3.546559e-01 2.887082e-02 -4.160910e-01 2.887174e-02 -4.160834e-01 5.138716e-01 -3.548943e-01
2.441800 5.129954e-01 -3.567495e-01 2.837866e-02 -4.146612e-01 2.837981e-02 -4.146530e-01 5.133965e-01 -3.569859e-01
2.443500 5.125036e-01 -3.588434e-01 2.789902e-02 -4.132300e-01 2.790042e-02 -4.132211e-01 5.129065e-01 -3.590778e-01
2.445200 5.119967e-01 -3.609376e-01 2.743191e-02 -4.117973e-01 2.743358e-02 -4.117878e-01 5.124015e-01 -3.611699e-01
2.446900 5.114748e-01 -3.630319e-01 2.697735e-02 -4.103634e-01 2.697931e-02 -4.103532e-01 5.118816e-01 -3.632623e-01
2.448600 5.109380e-01 -3.651263e-01 2.653537e-02 -4.089282e-01 2.653763e-02 -4.089174e-01 5.113467e-01 -3.653547e-01
2.450300 5.103861e-01 -3.672207e-01 2.610598e-02 -4.074918e-01 2.610856e-02 -4.074803e-01 5.107967e-01 -3.674471e-01
2.452000 5.098191e-01 -3.693151e-01 2.568921e-02 -4.060544e-01 2.569212e-02 -4.060422e-01 5.102317e-01 -3.695394e-01
2.453700 5.092370e-01 -3.714092e-01 2.528507e-02 -4.046159e-01 2.528834e-02 -4.046031e-01 5.096517e-01 -3.716315e-01
2.455400 5.086398e-01 -3.735031e-01 2.489358e-02 -4.031765e-01 2.489722e-02 -4.031630e-01 5.090565e-01 -3.737234e-01
2.457100 5.080274e-01 -3.755967e-01 2.451476e-02 -4.017363e-01 2.451879e-02 -4.017221e-01 5.084462e-01 -3.758150e-01
2.458800 5.073999e-01 -3.776899e-01 2.414863e-02 -4.002953e-01 2.415307e-02 -4.002805e-01 5.078208e-01 -3.779062e-01
2.460500 5.067572e-01 -3.797826e-01 2.379521e-02 -3.988536e-01 2.380007e-02 -3.988382e-01 5.071802e-01 -3.799968e-01
2.462200 5.060993e-01 -3.818747e-01 2.345451e-02 -3.974114e-01 2.345982e-02 -3.973952e-01 5.065244e-01 -3.820869e-01
2.463900 5.054261e-01 -3.839661e-01 2.312655e-02 -3.959686e-01 2.313233e-02 -3.959518e-01 5.058534e-01 -3.841763e-01
2.465600 5.047376e-01 -3.860567e-01 2.281136e-02 -3.945254e-01 2.281762e-02 -3.945079e-01 5.051672e-01 -3.862649e-01
2.467300 5.040339e-01 -3.881465e-01 2.250895e-02 -3.930818e-01 2.251571e-02 -3.930637e-01 5.044656e-01 -3.883527e-01
2.469000 5.033148e-01 -3.902354e-01 2.221933e-02 -3.916380e-01 2.222661e-02 -3.916192e-01 5.037488e-01 -3.904396e-01
2.470700 5.025804e-01 -3.923233e-01 2.194252e-02 -3.901940e-01 2.195034e-02 -3.901746e-01 5.030167e-01 -3.925254e-01
2.472400 5.018306e-01 -3.944100e-01 2.167855e-02 -3.887499e-01 2.168692e-02 -3.887299e-01 5.022693e-01 -3.946101e-01
2.474100 5.010654e-01 -3.964955e-01 2.142742e-02 -3.873059e-01 2.143636e-02 -3.872851e-01 5.015064e-01 -3.966936e-01
2.475800 5.002849e-01 -3.985798e-01 2.118915e-02 -3.858619e-01 2.119869e-02 -3.858405e-01 5.007282e-01 -3.987759e-01
2.477500 4.994888e-01 -4.006626e-01 2.096376e-02 -3.844180e-01 2.097391e-02 -3.843960e-01 4.999346e-01 -4.008567e-01
2.479200 4.986774e-01 -4.027440e-01 2.075126e-02 -3.829744e-01 2.076204e-02 -3.829518e-01 4.991256e-01 -4.029361e-01
2.480900 4.978504e-01 -4.048238e-01 2.055167e-02 -3.815312e-01 2.056309e-02 -3.815079e-01 4.983011e-01 -4.050139e-01
2.482600 4.970079e-01 -4.069019e-01 2.036500e-02 -3.800884e-01 2.037709e-02 -3.800645e-01 4.974611e-01 -4.070900e-01
2.484300 4.961499e-01 -4.089783e-01 2.019128e-02 -3.786461e-01 2.020405e-02 -3.786216e-01 4.966056e-01 -4.091644e-01
2.486000 4.952764e-01 -4.110529e-01 2.003050e-02 -3.772044e-01 2.004397e-02 -3.771793e-01 4.957346e-01 -4.112369e-01
2.487700 4.943873e-01 -4.131255e-01 1.988269e-02 -3.757634e-01 1.989688e-02 -3.757377e-01 4.948481e-01 -4.133076e-01
2.489400 4.934826e-01 -4.151961e-01 1.974785e-02 -3.743232e-01 1.976278e-02 -3.742970e-01 4.939460e-01 -4.153761e-01
2.491100 4.925623e-01 -4.172645e-01 1.962601e-02 -3.728839e-01 1.964170e-02 -3.728571e-01 4.930284e-01 -4.174426e-01
2.492800 4.916263e-01 -4.193308e-01 1.951718e-02 -3.714456e-01 1.953364e-02 -3.714181e-01 4.920951e-01 -4.195068e-01
2.494500 4.906747e-01 -4.213946e-01 1.942136e-02 -3.700083e-01 1.943861e-02 -3.699803e-01 4.911462e-01 -4.215687e-01
2.496200 4.897075e-01 -4.234561e-01 1.933857e-02 -3.685721e-01 1.935662e-02 -3.685436e-01 4.901817e-01 -4.236282e-01
2.497900 4.887245e-01 -4.255151e-01 1.926882e-02 -3.671372e-01 1.928770e-02 -3.671082e-01 4.892015e-01 -4.256852e-01
2.499600 4.877258e-01 -4.275714e-01 1.921212e-02 -3.657037e-01 1.923184e-02 -3.656741e-01 4.882056e-01 -4.277396e-01
2.501300 4.867114e-01 -4.296250e-01 1.916849e-02 -3.642716e-01 1.918907e-02 -3.642415e-01 4.871940e-01 -4.297912e-01
2.503000 4.856812e-01 -4.316759e-01 1.913793e-02 -3.628410e-01 1.915938e-02 -3.628104e-01 4.861668e-01 -4.318401e-01
2.504700 4.846353e-01 -4.337237e-01 1.912045e-02 -3.614120e-01 1.914279e-02 -3.613810e-01 4.851237e-01 -4.338860e-01
2.506400 4.835736e-01 -4.357686e-01 1.911606e-02 -3.599848e-01 1.913931e-02 -3.599532e-01 4.840650e-01 -4.359289e-01
2.508100 4.824960e-01 -4.378104e-01 1.912477e-02 -3.585594e-01 1.914894e-02 -3.585273e-01 4.829904e-01 -4.379687e-01
2.509800 4.814027e-01 -4.398489e-01 1.914659e-02 -3.571358e-01 1.917170e-02 -3.571034e-01 4.819001e-01 -4.400053e-01
2.511500 4.802935e-01 -4.418841e-01 1.918153e-02 -3.557143e-01 1.920759e-02 -3.556814e-01 4.807940e-01 -4.420386e-01
2.513200 4.791685e-01 -4.439159e-01 1.922959e-02 -3.542949e-01 1.925662e-02 -3.542616e-01 4.796720e-01 -4.440685e-01
2.514900 4.780275e-01 -4.459441e-01 1.929079e-02 -3.528777e-01 1.931880e-02 -3.528440e-01 4.785342e-01 -4.460948e-01
2.516600 4.768707e-01 -4.479687e-01 1.936512e-02 -3.514628e-01 1.939412e-02 -3.514287e-01 4.773806e-01 -4.481175e-01
2.518300 4.756980e-01 -4.499896e-01 1.945259e-02 -3.500503e-01 1.948261e-02 -3.500159e-01 4.762111e-01 -4.501365e-01
2.520000 4.745094e-01 -4.520066e-01 1.955322e-02 -3.486403e-01 1.958425e-02 -3.486055e-01 4.750257e-01 -4.521516e-01
2.521700 4.733049e-01 -4.540196e-01 1.966699e-02 -3.472329e-01 1.969907e-02 -3.471978e-01 4.738244e-01 -4.541628e-01
2.523400 4.720844e-01 -4.560286e-01 1.979393e-02 -3.458283e-01 1.982705e-02 -3.457928e-01 4.726072e-01 -4.561699e-01
2.525100 4.708479e-01 -4.580334e-01 1.993402e-02 -3.444264e-01 1.996820e-02 -3.443906e-01 4.713741e-01 -4.581728e-01
2.526800 4.695955e-01 -4.600339e-01 2.008728e-02 -3.430274e-01 2.012253e-02 -3.429914e-01 4.701251e-01 -4.601715e-01
2.528500 4.683271e-01 -4.620301e-01 2.025370e-02 -3.416314e-01 2.029004e-02 -3.415952e-01 4.688601e-01 -4.621658e-01
2.530200 4.670427e-01 -4.640217e-01 2.043329e-02 -3.402386e-01 2.047072e-02 -3.402021e-01 4.675792e-01 -4.641556e-01
2.531900 4.657423e-01 -4.660087e-01 2.062605e-02 -3.388490e-01 2.066459e-02 -3.388122e-01 4.662823e-01 -4.661408e-01
2.533600 4.644258e-01 -4.679910e-01 2.083198e-02 -3.374627e-01 2.087163e-02 -3.374257e-01 4.649694e-01 -4.681213e-01
2.535300 4.630934e-01 -4.699684e-01 2.105107e-02 -3.360798e-01 2.109185e-02 -3.360427e-01 4.636405e-01 -4.700969e-01
2.537000 4.617449e-01 -4.719409e-01 2.128333e-02 -3.347004e-01 2.132525e-02 -3.346632e-01 4.622956e-01 -4.720677e-01
2.538700 4.603804e-01 -4.739083e-01 2.152876e-02 -3.333247e-01 2.157182e-02 -3.332873e-01 4.609348e-01 -4.740333e-01
2.540400 4.589998e-01 -4.758705e-01 2.178735e-02 -3.319528e-01 2.183156e-02 -3.319153e-01 4.595579e-01 -4.759938e-01
2.542100 4.576032e-01 -4.778274e-01 2.205910e-02 -3.305847e-01 2.210447e-02 -3.305471e-01 4.581650e-01 -4.779490e-01
2.543800 4.561905e-01 -4.797789e-01 2.234401e-02 -3.292205e-01 2.239054e-02 -3.291829e-01 4.567561e-01 -4.798988e-01
2.545500 4.547617e-01 -4.817249e-01 2.264206e-02 -3.278605e-01 2.268977e-02 -3.278227e-01 4.553312e-01 -4.818431e-01
2.547200 4.533168e-01 -4.836652e-01 2.295327e-02 -3.265046e-01 2.300215e-02 -3.264668e-01 4.538902e-01 -4.837818e-01
2.548900 4.518559e-01 -4.855998e-01 2.327761e-02 -3.251530e-01 2.332768e-02 -3.251152e-01 4.524332e-01 -4.857147e-01
2.550600 4.503789e-01 -4.875284e-01 2.361508e-02 -3.238058e-01 2.366634e-02 -3.237681e-01 4.509601e-01 -4.876417e-01
2.552300 4.488858e-01 -4.894511e-01 2.396568e-02 -3.224631e-01 2.401813e-02 -3.224254e-01 4.494710e-01 -4.895627e-01
2.554000 4.473766e-01 -4.913676e-01 2.432939e-02 -3.211250e-01 2.438304e-02 -3.210874e-01 4.479658e-01 -4.914777e-01
2.555700 4.458513e-01 -4.932779e-01 2.470621e-02 -3.197917e-01 2.476106e-02 -3.197542e-01 4.464446e-01 -4.933864e-01
2.557400 4.443099e-01 -4.951817e-01 2.509612e-02 -3.184632e-01 2.515217e-02 -3.184258e-01 4.449074e-01 -4.952887e-01
2.559100 4.427525e-01 -4.970791e-01 2.549912e-02 -3.171397e-01 2.555638e-02 -3.171024e-01 4.433541e-01 -4.971846e-01
2.560800 4.411789e-01 -4.989699e-01 2.591519e-02 -3.158212e-01 2.597365e-02 -3.157842e-01 4.417847e-01 -4.990739e-01
2.562500 4.395892e-01 -5.008540e-01 2.634432e-02 -3.145080e-01 2.640398e-02 -3.144711e-01 4.401993e-01 -5.009564e-01
2.564200 4.379835e-01 -5.027311e-01 2.678649e-02 -3.132000e-01 2.684736e-02 -3.131634e-01 4.385979e-01 -5.028321e-01
2.565900 4.363616e-01 -5.046013e-01 2.724170e-02 -3.118975e-01 2.730377e-02 -3.118611e-01 4.369804e-01 -5.047009e-01
2.567600 4.347237e-01 -5.064643e-01 2.770991e-02 -3.106004e-01 2.777319e-02 -3.105643e-01 4.353468e-01 -5.065625e-01
2.569300 4.330697e-01 -5.083201e-01 2.819112e-02 -3.093091e-01 2.825560e-02 -3.092733e-01 4.336973e-01 -5.084170e-01
2.571000 4.313997e-01 -5.101686e-01 2.868532e-02 -3.080235e-01 2.875099e-02 -3.079880e-01 4.320317e-01 -5.102640e-01
2.572700 4.297136e-01 -5.120095e-01 2.919247e-02 -3.067438e-01 2.925933e-02 -3.067087e-01 4.303501e-01 -5.121036e-01
2.574400 4.280114e-01 -5.138428e-01 2.971255e-02 -3.054701e-01 2.978061e-02 -3.054353e-01 4.286525e-01 -5.139356e-01
2.576100 4.262931e-01 -5.156683e-01 3.024556e-02 -3.042025e-01 3.031480e-02 -3.041682e-01 4.269389e-01 -5.157599e-01
2.577800 4.245589e-01 -5.174859e-01 3.079147e-02 -3.029412e-01 3.086189e-02 -3.029073e-01 4.252092e-01 -5.175763e-01
2.579500 4.228086e-01 -5.192955e-01 3.135024e-02 -3.016862e-01 3.142184e-02 -3.016527e-01 4.234636e-01 -5.193847e-01
2.581200 4.210423e-01 -5.210970e-01 3.192187e-02 -3.004377e-01 3.199463e-02 -3.004047e-01 4.217021e-01 -5.211850e-01
2.582900 4.192600e-01 -5.228902e-01 3.250632e-02 -2.991958e-01 3.258023e-02 -2.991633e-01 4.199246e-01 -5.229770e-01
2.584600 4.174616e-01 -5.246749e-01 3.310357e-02 -2.979606e-01 3.317863e-02 -2.979287e-01 4.181311e-01 -5.247606e-01
2.586300 4.156474e-01 -5.264511e-01 3.371358e-02 -2.967323e-01 3.378978e-02 -2.967009e-01 4.163217e-01 -5.265357e-01
2.588000 4.138171e-01 -5.282186e-01 3.433634e-02 -2.955109e-01 3.441367e-02 -2.954801e-01 4.144964e-01 -5.283022e-01
2.589700 4.119709e-01 -5.299773e-01 3.497180e-02 -2.942967e-01 3.505025e-02 -2.942665e-01 4.126552e-01 -5.300599e-01
2.591400 4.101088e-01 -5.317270e-01 3.561995e-02 -2.930896e-01 3.569951e-02 -2.930600e-01 4.107981e-01 -5.318086e-01
2.593100 4.082308e-01 -5.334676e-01 3.628074e-02 -2.918899e-01 3.636139e-02 -2.918610e-01 4.089251e-01 -5.335483e-01
2.594800 4.063369e-01 -5.351990e-01 3.695414e-02 -2.906976e-01 3.703588e-02 -2.906694e-01 4.070363e-01 -5.352788e-01
2.596500 4.044272e-01 -5.369210e-01 3.764012e-02 -2.895129e-01 3.772293e-02 -2.894854e-01 4.051317e-01 -5.369999e-01
2.598200 4.025016e-01 -5.386335e-01 3.833865e-02 -2.883359e-01 3.842250e-02 -2.883091e-01 4.032113e-01 -5.387116e-01
2.599900 4.005601e-01 -5.403363e-01 3.904968e-02 -2.871667e-01 3.913457e-02 -2.871407e-01 4.012751e-01 -5.404137e-01
2.601600 3.986029e-01 -5.420294e-01 3.977317e-02 -2.860055e-01 3.985909e-02 -2.859803e-01 3.993232e-01 -5.421060e-01
2.603300 3.966299e-01 -5.437125e-01 4.050909e-02 -2.848524e-01 4.059601e-02 -2.848280e-01 3.973556e-01 -5.437885e-01
2.605000 3.946412e-01 -5.453856e-01 4.125739e-02 -2.837075e-01 4.134530e-02 -2.836839e-01 3.953722e-01 -5.454609e-01
2.606700 3.926368e-01 -5.470485e-01 4.201804e-02 -2.825709e-01 4.210692e-02 -2.825482e-01 3.933732e-01 -5.471232e-01
2.608400 3.906166e-01 -5.487010e-01 4.279098e-02 -2.814428e-01 4.288081e-02 -2.814209e-01 3.913586e-01 -5.487751e-01
2.610100 3.885809e-01 -5.503430e-01 4.357617e-02 -2.803232e-01 4.366694e-02 -2.803023e-01 3.893283e-01 -5.504166e-01
2.611800 3.865295e-01 -5.519744e-01 4.437357e-02 -2.792124e-01 4.446524e-02 -2.791924e-01 3.872825e-01 -5.520475e-01
2.613500 3.844625e-01 -5.535950e-01 4.518313e-02 -2.781104e-01 4.527569e-02 -2.780914e-01 3.852211e-01 -5.536677e-01
2.615200 3.823800e-01 -5.552047e-01 4.600479e-02 -2.770174e-01 4.609822e-02 -2.769993e-01 3.831443e-01 -5.552771e-01
2.616900 3.802820e-01 -5.568034e-01 4.683851e-02 -2.759335e-01 4.693278e-02 -2.759164e-01 3.810519e-01 -5.568754e-01
2.618600 3.781684e-01 -5.583908e-01 4.768423e-02 -2.748588e-01 4.777932e-02 -2.748427e-01 3.789442e-01 -5.584625e-01
2.620300 3.760395e-01 -5.599669e-01 4.854190e-02 -2.737934e-01 4.863779e-02 -2.737784e-01 3.768210e-01 -5.600384e-01
2.622000 3.738952e-01 -5.615314e-01 4.941146e-02 -2.727376e-01 4.950813e-02 -2.727236e-01 3.746825e-01 -5.616028e-01
2.623700 3.717355e-01 -5.630844e-01 5.029286e-02 -2.716913e-01 5.039027e-02 -2.716784e-01 3.725287e-01 -5.631556e-01
2.625400 3.695605e-01 -5.646255e-01 5.118603e-02 -2.706548e-01 5.128417e-02 -2.706430e-01 3.703596e-01 -5.646966e-01
2.627100 3.673702e-01 -5.661547e-01 5.209093e-02 -2.696282e-01 5.218976e-02 -2.696174e-01 3.681753e-01 -5.662258e-01
2.628800 3.651647e-01 -5.676718e-01 5.300747e-02 -2.686115e-01 5.310697e-02 -2.686019e-01 3.659758e-01 -5.677430e-01
2.630500 3.629440e-01 -5.691767e-01 5.393561e-02 -2.676050e-01 5.403575e-02 -2.675965e-01 3.637612e-01 -5.692479e-01
2.632200 3.607082e-01 -5.706692e-01 5.487528e-02 -2.666088e-01 5.497603e-02 -2.666015e-01 3.615315e-01 -5.707406e-01
2.633900 3.584574e-01 -5.721491e-01 5.582640e-02 -2.656229e-01 5.592773e-02 -2.656168e-01 3.592868e-01 -5.722208e-01
2.635600 3.561915e-01 -5.736164e-01 5.678892e-02 -2.646475e-01 5.689080e-02 -2.646426e-01 3.570271e-01 -5.736884e-01
2.637300 3.539107e-01 -5.750709e-01 5.776276e-02 -2.636828e-01 5.786516e-02 -2.636791e-01 3.547524e-01 -5.751432e-01
2.639000 3.516149e-01 -5.765124e-01 5.874785e-02 -2.627289e-01 5.885075e-02 -2.627264e-01 3.524629e-01 -5.765850e-01
2.640700 3.493043e-01 -5.779408e-01 5.974412e-02 -2.617859e-01 5.984747e-02 -2.617846e-01 3.501586e-01 -5.780139e-01
2.642400 3.469789e-01 -5.793559e-01 6.075149e-02 -2.608539e-01 6.085527e-02 -2.608538e-01 3.478396e-01 -5.794295e-01
2.644100 3.446388e-01 -5.807575e-01 6.176988e-02 -2.599331e-01 6.187406e-02 -2.599343e-01 3.455058e-01 -5.808318e-01
2.645800 3.422840e-01 -5.821457e-01 6.279922e-02 -2.590235e-01 6.290376e-02 -2.590260e-01 3.431574e-01 -5.822205e-01
2.647500 3.399146e-01 -5.835200e-01 6.383943e-02 -2.581254e-01 6.394430e-02 -2.581292e-01 3.407945e-01 -5.835956e-01
2.649200 3.375306e-01 -5.848805e-01 6.489042e-02 -2.572389e-01 6.499559e-02 -2.572439e-01 3.384170e-01 -5.849569e-01
2.650900 3.351322e-01 -5.862270e-01 6.595212e-02 -2.563640e-01 6.605755e-02 -2.563703e-01 3.360251e-01 -5.863042e-01
2.652600 3.327194e-01 -5.875593e-01 6.702443e-02 -2.555010e-01 6.713009e-02 -2.555086e-01 3.336188e-01 -5.876374e-01
2.654300 3.302922e-01 -5.888773e-01 6.810727e-02 -2.546498e-01 6.821312e-02 -2.546588e-01 3.311983e-01 -5.889564e-01
2.656000 3.278508e-01 -5.901808e-01 6.920056e-02 -2.538108e-01 6.930656e-02 -2.538210e-01 3.287635e-01 -5.902610e-01
2.657700 3.253951e-01 -5.914697e-01 7.030419e-02 -2.529840e-01 7.041031e-02 -2.529955e-01 3.263145e-01 -5.915510e-01
2.659400 3.229254e-01 -5.927438e-01 7.141808e-02 -2.521694e-01 7.152428e-02 -2.521823e-01 3.238514e-01 -5.928263e-01
2.661100 3.204416e-01 -5.940030e-01 7.254213e-02 -2.513674e-01 7.264838e-02 -2.513816e-01 3.213744e-01 -5.940867e-01
2.662800 3.179438e-01 -5.952471e-01 7.367625e-02 -2.505779e-01 7.378251e-02 -2.505934e-01 3.188834e-01 -5.953321e-01
2.664500 3.154322e-01 -5.964759e-01 7.482034e-02 -2.498011e-01 7.492658e-02 -2.498180e-01 3.163786e-01 -5.965624e-01
2.666200 3.129067e-01 -5.976894e-01 7.597429e-02 -2.490372e-01 7.608047e-02 -2.490554e-01 3.138600e-01 -5.977774e-01
2.667900 3.103676e-01 -5.988873e-01 7.713801e-02 -2.482862e-01 7.724409e-02 -2.483057e-01 3.113277e-01 -5.989769e-01
2.669600 3.078148e-01 -6.000696e-01 7.831140e-02 -2.475484e-01 7.841734e-02 -2.475692e-01 3.087818e-01 -6.001608e-01
2.671300 3.052485e-01 -6.012360e-01 7.949434e-02 -2.468237e-01 7.960011e-02 -2.468458e-01 3.062224e-01 -6.013289e-01
2.673000 3.026687e-01 -6.023864e-01 8.068674e-02 -2.461124e-01 8.079229e-02 -2.461358e-01 3.036496e-01 -6.024812e-01
2.674700 3.000756e-01 -6.035207e-01 8.188847e-02 -2.454145e-01 8.199377e-02 -2.454393e-01 3.010635e-01 -6.036174e-01
2.676400 2.974692e-01 -6.046387e-01 8.309943e-02 -2.447302e-01 8.320444e-02 -2.447563e-01 2.984641e-01 -6.047373e-01
2.678100 2.948496e-01 -6.057403e-01 8.431951e-02 -2.440597e-01 8.442419e-02 -2.440870e-01 2.958515e-01 -6.058410e-01
2.679800 2.922169e-01 -6.068253e-01 8.554859e-02 -2.434030e-01 8.565291e-02 -2.434316e-01 2.932260e-01 -6.069281e-01
2.681500 2.895713e-01 -6.078935e-01 8.678656e-02 -2.427602e-01 8.689047e-02 -2.427901e-01 2.905874e-01 -6.079985e-01
2.683200 2.869128e-01 -6.089449e-01 8.803328e-02 -2.421315e-01 8.813675e-02 -2.421627e-01 2.879360e-01 -6.090522e-01
2.684900 2.842415e-01 -6.099792e-01 8.928865e-02 -2.415170e-01 8.939165e-02 -2.415495e-01 2.852719e-01 -6.100889e-01
2.686600 2.815576e-01 -6.109964e-01 9.055255e-02 -2.409169e-01 9.065502e-02 -2.409505e-01 2.825951e-01 -6.111085e-01
2.688300 2.788611e-01 -6.119962e-01 9.182483e-02 -2.403312e-01 9.192675e-02 -2.403661e-01 2.799058e-01 -6.121109e-01
2.690000 2.761521e-01 -6.129785e-01 9.310539e-02 -2.397600e-01 9.320672e-02 -2.397961e-01 2.772040e-01 -6.130958e-01
2.691700 2.734308e-01 -6.139432e-01 9.439408e-02 -2.392035e-01 9.449478e-02 -2.392408e-01 2.744899e-01 -6.140632e-01
2.693400 2.706972e-01 -6.148901e-01 9.569079e-02 -2.386618e-01 9.579082e-02 -2.387003e-01 2.717636e-01 -6.150130e-01
2.695100 2.679515e-01 -6.158191e-01 9.699537e-02 -2.381351e-01 9.709470e-02 -2.381747e-01 2.690252e-01 -6.159449e-01
2.696800 2.651939e-01 -6.167300e-01 9.830769e-02 -2.376233e-01 9.840628e-02 -2.376641e-01 2.662748e-01 -6.168588e-01
2.698500 2.624243e-01 -6.176227e-01 9.962761e-02 -2.371267e-01 9.972543e-02 -2.371686e-01 2.635125e-01 -6.177546e-01
2.700200 2.596430e-01 -6.184971e-01 1.009550e-01 -2.366453e-01 1.010520e-01 -2.366883e-01 2.607384e-01 -6.186321e-01
2.701900 2.568500e-01 -6.193530e-01 1.022897e-01 -2.361793e-01 1.023859e-01 -2.362234e-01 2.579528e-01 -6.194913e-01
2.703600 2.540455e-01 -6.201902e-01 1.036316e-01 -2.357288e-01 1.037269e-01 -2.357740e-01 2.551556e-01 -6.203318e-01
2.705300 2.512296e-01 -6.210086e-01 1.049805e-01 -2.352939e-01 1.050749e-01 -2.353401e-01 2.523470e-01 -6.211537e-01
2.707000 2.484024e-01 -6.218081e-01 1.063364e-01 -2.348746e-01 1.064298e-01 -2.349218e-01 2.495272e-01 -6.219567e-01
2.708700 2.455641e-01 -6.225885e-01 1.076989e-01 -2.344712e-01 1.077914e-01 -2.345194e-01 2.466962e-01 -6.227408e-01
2.710400 2.427148e-01 -6.233497e-01 1.090681e-01 -2.340837e-01 1.091595e-01 -2.341328e-01 2.438543e-01 -6.235057e-01
2.712100 2.398546e-01 -6.240915e-01 1.104437e-01 -2.337122e-01 1.105340e-01 -2.337622e-01 2.410014e-01 -6.242513e-01
2.713800 2.369836e-01 -6.248138e-01 1.118255e-01 -2.333568e-01 1.119148e-01 -2.334077e-01 2.381379e-01 -6.249776e-01
2.715500 2.341021e-01 -6.255165e-01 1.132135e-01 -2.330176e-01 1.133017e-01 -2.330694e-01 2.352637e-01 -6.256843e-01
2.717200 2.312100e-01 -6.261995e-01 1.146075e-01 -2.326948e-01 1.146945e-01 -2.327474e-01 2.323790e-01 -6.263714e-01
2.718900 2.283077e-01 -6.268625e-01 1.160072e-01 -2.323884e-01 1.160931e-01 -2.324418e-01 2.294841e-01 -6.270386e-01
2.720600 2.253952e-01 -6.275055e-01 1.174127e-01 -2.320985e-01 1.174973e-01 -2.321527e-01 2.265789e-01 -6.276859e-01
2.722300 2.224726e-01 -6.281283e-01 1.188235e-01 -2.318252e-01 1.189070e-01 -2.318801e-01 2.236637e-01 -6.283131e-01
2.724000 2.195401e-01 -6.287307e-01 1.202397e-01 -2.315686e-01 1.203220e-01 -2.316242e-01 2.207386e-01 -6.289201e-01
2.725700 2.165979e-01 -6.293128e-01 1.216611e-01 -2.313288e-01 1.217420e-01 -2.313851e-01 2.178037e-01 -6.295067e-01
2.727400 2.136461e-01 -6.298742e-01 1.230874e-01 -2.311060e-01 1.231670e-01 -2.311629e-01 2.148593e-01 -6.300729e-01
2.729100 2.106848e-01 -6.304150e-01 1.245185e-01 -2.309001e-01 1.245968e-01 -2.309576e-01 2.119054e-01 -6.306184e-01
2.730800 2.077143e-01 -6.309349e-01 1.259543e-01 -2.307113e-01 1.260312e-01 -2.307694e-01 2.089422e-01 -6.311432e-01
2.732500 2.047346e-01 -6.314338e-01 1.273945e-01 -2.305397e-01 1.274701e-01 -2.305983e-01 2.059698e-01 -6.316471e-01
2.734200 2.017460e-01 -6.319117e-01 1.288389e-01 -2.303853e-01 1.289131e-01 -2.304444e-01 2.029885e-01 -6.321301e-01
2.735900 1.987485e-01 -6.323683e-01 1.302875e-01 -2.302483e-01 1.303603e-01 -2.303077e-01 1.999983e-01 -6.325919e-01
2.737600 1.957424e-01 -6.328035e-01 1.317399e-01 -2.301286e-01 1.318113e-01 -2.301885e-01 1.969995e-01 -6.330324e-01
2.739300 1.927277e-01 -6.332173e-01 1.331961e-01 -2.300265e-01 1.332661e-01 -2.300867e-01 1.939921e-01 -6.334516e-01
2.741000 1.897048e-01 -6.336095e-01 1.346559e-01 -2.299420e-01 1.347243e-01 -2.300025e-01 1.909764e-01 -6.338493e-01
2.742700 1.866736e-01 -6.339800e-01 1.361190e-01 -2.298751e-01 1.361859e-01 -2.299358e-01 1.879525e-01 -6.342254e-01
2.744400 1.836345e-01 -6.343287e-01 1.375852e-01 -2.298259e-01 1.376507e-01 -2.298869e-01 1.849206e-01 -6.345798e-01
2.746100 1.805876e-01 -6.346554e-01 1.390544e-01 -2.297945e-01 1.391184e-01 -2.298557e-01 1.818809e-01 -6.349123e-01
2.747800 1.775330e-01 -6.349600e-01 1.405264e-01 -2.297810e-01 1.405889e-01 -2.298423e-01 1.788334e-01 -6.352228e-01
2.749500 1.744709e-01 -6.352425e-01 1.420010e-01 -2.297855e-01 1.420620e-01 -2.298468e-01 1.757785e-01 -6.355112e-01
2.751200 1.714015e-01 -6.355026e-01 1.434780e-01 -2.298079e-01 1.435374e-01 -2.298693e-01 1.727163e-01 -6.357775e-01
2.752900 1.683250e-01 -6.357403e-01 1.449572e-01 -2.298484e-01 1.450150e-01 -2.299098e-01 1.696469e-01 -6.360214e-01
2.754600 1.652416e-01 -6.359556e-01 1.464383e-01 -2.299070e-01 1.464946e-01 -2.299683e-01 1.665705e-01 -6.362429e-01
2.756300 1.621514e-01 -6.361481e-01 1.479213e-01 -2.299838e-01 1.479760e-01 -2.300450e-01 1.634873e-01 -6.364419e-01
2.758000 1.590545e-01 -6.363180e-01 1.494058e-01 -2.300789e-01 1.494590e-01 -2.301399e-01 1.603975e-01 -6.366182e-01
2.759700 1.559513e-01 -6.364650e-01 1.508918e-01 -2.301922e-01 1.509434e-01 -2.302531e-01 1.573012e-01 -6.367718e-01
2.761400 1.528419e-01 -6.365890e-01 1.523789e-01 -2.303239e-01 1.524289e-01 -2.303845e-01 1.541987e-01 -6.369025e-01
2.763100 1.497264e-01 -6.366900e-01 1.538669e-01 -2.304740e-01 1.539154e-01 -2.305343e-01 1.510902e-01 -6.370103e-01
2.764800 1.466051e-01 -6.367678e-01 1.553558e-01 -2.306426e-01 1.554027e-01 -2.307025e-01 1.479757e-01 -6.370950e-01
2.766500 1.434782e-01 -6.368224e-01 1.568451e-01 -2.308296e-01 1.568905e-01 -2.308892e-01 1.448556e-01 -6.371566e-01
2.768200 1.403457e-01 -6.368536e-01 1.583349e-01 -2.310352e-01 1.583787e-01 -2.310943e-01 1.417299e-01 -6.371949e-01
2.769900 1.372081e-01 -6.368614e-01 1.598247e-01 -2.312594e-01 1.598670e-01 -2.313180e-01 1.385990e-01 -6.372098e-01
2.771600 1.340653e-01 -6.368456e-01 1.613145e-01 -2.315021e-01 1.613552e-01 -2.315602e-01 1.354629e-01 -6.372013e-01
2.773300 1.309177e-01 -6.368062e-01 1.628039e-01 -2.317635e-01 1.628431e-01 -2.318210e-01 1.323219e-01 -6.371693e-01
2.775000 1.277653e-01 -6.367431e-01 1.642928e-01 -2.320436e-01 1.643305e-01 -2.321005e-01 1.291762e-01 -6.371136e-01
2.776700 1.246085e-01 -6.366562e-01 1.657810e-01 -2.323424e-01 1.658172e-01 -2.323986e-01 1.260259e-01 -6.370343e-01
2.778400 1.214474e-01 -6.365453e-01 1.672682e-01 -2.326599e-01 1.673029e-01 -2.327153e-01 1.228713e-01 -6.369311e-01
2.780100 1.182823e-01 -6.364105e-01 1.687542e-01 -2.329962e-01 1.687874e-01 -2.330508e-01 1.197126e-01 -6.368040e-01
2.781800 1.151132e-01 -6.362516e-01 1.702388e-01 -2.333512e-01 1.702706e-01 -2.334051e-01 1.165500e-01 -6.366530e-01
2.783500 1.119405e-01 -6.360686e-01 1.717218e-01 -2.337251e-01 1.717521e-01 -2.337780e-01 1.133836e-01 -6.364779e-01
2.785200 1.087643e-01 -6.358613e-01 1.732029e-01 -2.341177e-01 1.732318e-01 -2.341698e-01 1.102137e-01 -6.362786e-01
2.786900 1.055848e-01 -6.356298e-01 1.746819e-01 -2.345292e-01 1.747094e-01 -2.345803e-01 1.070405e-01 -6.360552e-01
2.788600 1.024023e-01 -6.353738e-01 1.761586e-01 -2.349595e-01 1.761847e-01 -2.350096e-01 1.038641e-01 -6.358075e-01
2.790300 9.921696e-02 -6.350934e-01 1.776327e-01 -2.354086e-01 1.776575e-01 -2.354576e-01 1.006849e-01 -6.355354e-01
2.792000 9.602896e-02 -6.347885e-01 1.791041e-01 -2.358766e-01 1.791276e-01 -2.359245e-01 9.750291e-02 -6.352388e-01
2.793700 9.283854e-02 -6.344590e-01 1.805725e-01 -2.363634e-01 1.805946e-01 -2.364102e-01 9.431848e-02 -6.349178e-01
2.795400 8.964590e-02 -6.341049e-01 1.820376e-01 -2.368690e-01 1.820585e-01 -2.369146e-01 9.113177e-02 -6.345722e-01
2.797100 8.645126e-02 -6.337260e-01 1.834992e-01 -2.373935e-01 1.835189e-01 -2.374379e-01 8.794299e-02 -6.342020e-01
2.798800 8.325484e-02 -6.333223e-01 1.849572e-01 -2.379368e-01 1.849757e-01 -2.379799e-01 8.475236e-02 -6.338071e-01
2.800500 8.005684e-02 -6.328938e-01 1.864112e-01 -2.384989e-01 1.864285e-01 -2.385407e-01 8.156009e-02 -6.333874e-01
2.802200 7.685749e-02 -6.324405e-01 1.878610e-01 -2.390798e-01 1.878772e-01 -2.391202e-01 7.836639e-02 -6.329429e-01
2.803900 7.365701e-02 -6.319621e-01 1.893065e-01 -2.396794e-01 1.893215e-01 -2.397185e-01 7.517149e-02 -6.324736e-01
2.805600 7.045560e-02 -6.314588e-01 1.907473e-01 -2.402978e-01 1.907612e-01 -2.403355e-01 7.197560e-02 -6.319793e-01
2.807300 6.725349e-02 -6.309304e-01 1.921832e-01 -2.409349e-01 1.921961e-01 -2.409711e-01 6.877893e-02 -6.314601e-01
2.809000 6.405090e-02 -6.303768e-01 1.936139e-01 -2.415907e-01 1.936259e-01 -2.416255e-01 6.558170e-02 -6.309158e-01
2.810700 6.084805e-02 -6.297982e-01 1.950393e-01 -2.422652e-01 1.950503e-01 -2.422984e-01 6.238414e-02 -6.303464e-01
2.812400 5.764516e-02 -6.291943e-01 1.964591e-01 -2.429582e-01 1.964692e-01 -2.429899e-01 5.918646e-02 -6.297520e-01
2.814100 5.444245e-02 -6.285652e-01 1.978731e-01 -2.436699e-01 1.978823e-01 -2.437000e-01 5.598889e-02 -6.291323e-01
2.815800 5.124014e-02 -6.279109e-01 1.992810e-01 -2.444001e-01 1.992894e-01 -2.444286e-01 5.279164e-02 -6.284875e-01
2.817500 4.803847e-02 -6.272312e-01 2.006826e-01 -2.451488e-01 2.006902e-01 -2.451757e-01 4.959494e-02 -6.278174e-01
2.819200 4.483764e-02 -6.265262e-01 2.020776e-01 -2.459159e-01 2.020845e-01 -2.459411e-01 4.639900e-02 -6.271221e-01
2.820900 4.163789e-02 -6.257958e-01 2.034658e-01 -2.467014e-01 2.034720e-01 -2.467250e-01 4.320406e-02 -6.264014e-01
2.822600 3.843943e-02 -6.250399e-01 2.048470e-01 -2.475053e-01 2.048525e-01 -2.475271e-01 4.001034e-02 -6.256554e-01
2.824300 3.524251e-02 -6.242587e-01 2.062209e-01 -2.483274e-01 2.062258e-01 -2.483475e-01 3.681806e-02 -6.248841e-01
2.826000 3.204733e-02 -6.234519e-01 2.075872e-01 -2.491677e-01 2.075917e-01 -2.491861e-01 3.362744e-02 -6.240873e-01
2.827700 2.885413e-02 -6.226197e-01 2.089458e-01 -2.500262e-01 2.089498e-01 -2.500428e-01 3.043871e-02 -6.232651e-01
2.829400 2.566313e-02 -6.217620e-01 2.102964e-01 -2.509027e-01 2.102999e-01 -2.509175e-01 2.725210e-02 -6.224175e-01
2.831100 2.247457e-02 -6.208788e-01 2.116387e-01 -2.517972e-01 2.116419e-01 -2.518102e-01 2.406783e-02 -6.215444e-01
2.832800 1.928866e-02 -6.199700e-01 2.129726e-01 -2.527096e-01 2.129754e-01 -2.527208e-01 2.088613e-02 -6.206458e-01
2.834500 1.610563e-02 -6.190356e-01 2.142977e-01 -2.536399e-01 2.143002e-01 -2.536493e-01 1.770722e-02 -6.197218e-01
2.836200 1.292572e-02 -6.180757e-01 2.156138e-01 -2.545878e-01 2.156162e-01 -2.545954e-01 1.453133e-02 -6.187722e-01
2.837900 9.749145e-03 -6.170902e-01 2.169208e-01 -2.555535e-01 2.169229e-01 -2.555592e-01 1.135870e-02 -6.177971e-01
2.839600 6.576139e-03 -6.160791e-01 2.182182e-01 -2.565367e-01 2.182203e-01 -2.565406e-01 8.189533e-03 -6.167965e-01
2.841300 3.406929e-03 -6.150424e-01 2.195060e-01 -2.575373e-01 2.195080e-01 -2.575394e-01 5.024073e-03 -6.157703e-01
2.843000 2.417420e-04 -6.139802e-01 2.207839e-01 -2.585553e-01 2.207859e-01 -2.585555e-01 1.862542e-03 -6.147186e-01
2.844700 -2.919193e-03 -6.128923e-01 2.220516e-01 -2.595906e-01 2.220536e-01 -2.595889e-01 -1.294832e-03 -6.136414e-01
2.846400 -6.075648e-03 -6.117789e-01 2.233088e-01 -2.606429e-01 2.233110e-01 -2.606395e-01 -4.447821e-03 -6.125386e-01
2.848100 -9.227395e-03 -6.106398e-01 2.245555e-01 -2.617124e-01 2.245578e-01 -2.617070e-01 -7.596199e-03 -6.114103e-01
2.849800 -1.237421e-02 -6.094752e-01 2.257912e-01 -2.627987e-01 2.257938e-01 -2.627915e-01 -1.073974e-02 -6.102564e-01
2.851500 -1.551585e-02 -6.082850e-01 2.270159e-01 -2.639018e-01 2.270187e-01 -2.638928e-01 -1.387821e-02 -6.090771e-01
2.853200 -1.865211e-02 -6.070693e-01 2.282291e-01 -2.650215e-01 2.282323e-01 -2.650108e-01 -1.701139e-02 -6.078722e-01
2.854900 -2.178275e-02 -6.058280e-01 2.294308e-01 -2.661578e-01 2.294344e-01 -2.661453e-01 -2.013904e-02 -6.066418e-01
2.856600 -2.490754e-02 -6.045612e-01 2.306207e-01 -2.673105e-01 2.306247e-01 -2.672962e-01 -2.326095e-02 -6.053859e-01
2.858300 -2.802626e-02 -6.032688e-01 2.317985e-01 -2.684795e-01 2.318030e-01 -2.684634e-01 -2.637689e-02 -6.041046e-01
2.860000 -3.113868e-02 -6.019510e-01 2.329641e-01 -2.696646e-01 2.329691e-01 -2.696467e-01 -2.948662e-02 -6.027978e-01
2.861700 -3.424457e-02 -6.006077e-01 2.341171e-01 -2.708657e-01 2.341227e-01 -2.708460e-01 -3.258993e-02 -6.014656e-01
2.863400 -3.734371e-02 -5.992390e-01 2.352574e-01 -2.720825e-01 2.352636e-01 -2.720612e-01 -3.568659e-02 -6.001079e-01
2.865100 -4.043587e-02 -5.978448e-01 2.363847e-01 -2.733151e-01 2.363916e-01 -2.732921e-01 -3.877637e-02 -5.987249e-01
2.866800 -4.352083e-02 -5.964253e-01 2.374988e-01 -2.745632e-01 2.375065e-01 -2.745385e-01 -4.185904e-02 -5.973165e-01
2.868500 -4.659836e-02 -5.949803e-01 2.385994e-01 -2.758266e-01 2.386080e-01 -2.758003e-01 -4.493439e-02 -5.958828e-01
2.870200 -4.966824e-02 -5.935101e-01 2.396865e-01 -2.771053e-01 2.396959e-01 -2.770774e-01 -4.800219e-02 -5.944238e-01
2.871900 -5.273024e-02 -5.920146e-01 2.407597e-01 -2.783989e-01 2.407700e-01 -2.783695e-01 -5.106221e-02 -5.929396e-01
2.873600 -5.578414e-02 -5.904938e-01 2.418187e-01 -2.797075e-01 2.418300e-01 -2.796765e-01 -5.411424e-02 -5.914301e-01
2.875300 -5.882972e-02 -5.889478e-01 2.428635e-01 -2.810307e-01 2.428758e-01 -2.809982e-01 -5.715804e-02 -5.898954e-01
2.877000 -6.186675e-02 -5.873766e-01 2.438938e-01 -2.823683e-01 2.439071e-01 -2.823344e-01 -6.019341e-02 -5.883355e-01
2.878700 -6.489502e-02 -5.857803e-01 2.449093e-01 -2.837203e-01 2.449237e-01 -2.836850e-01 -6.322010e-02 -5.867506e-01
2.880400 -6.791430e-02 -5.841589e-01 2.459098e-01 -2.850865e-01 2.459254e-01 -2.850497e-01 -6.623792e-02 -5.851406e-01
2.882100 -7.092437e-02 -5.825124e-01 2.468952e-01 -2.864665e-01 2.469120e-01 -2.864285e-01 -6.924662e-02 -5.835055e-01
2.883800 -7.392502e-02 -5.808410e-01 2.478653e-01 -2.878603e-01 2.478833e-01 -2.878210e-01 -7.224601e-02 -5.818455e-01
2.885500 -7.691602e-02 -5.791446e-01 2.488197e-01 -2.892676e-01 2.488390e-01 -2.892271e-01 -7.523584e-02 -5.801606e-01
2.887200 -7.989716e-02 -5.774233e-01 2.497584e-01 -2.906883e-01 2.497790e-01 -2.906465e-01 -7.821592e-02 -5.784508e-01
2.888900 -8.286821e-02 -5.756772e-01 2.506811e-01 -2.921221e-01 2.507030e-01 -2.920792e-01 -8.118602e-02 -5.767161e-01
2.890600 -8.582897e-02 -5.739063e-01 2.515876e-01 -2.935688e-01 2.516109e-01 -2.935248e-01 -8.414592e-02 -5.749567e-01
2.892300 -8.877921e-02 -5.721107e-01 2.524777e-01 -2.950281e-01 2.525024e-01 -2.949831e-01 -8.709541e-02 -5.731726e-01
2.894000 -9.171873e-02 -5.702903e-01 2.533512e-01 -2.965000e-01 2.533774e-01 -2.964540e-01 -9.003427e-02 -5.713638e-01
2.895700 -9.464730e-02 -5.684454e-01 2.542080e-01 -2.979841e-01 2.542356e-01 -2.979372e-01 -9.296230e-02 -5.695304e-01
2.897400 -9.756471e-02 -5.665760e-01 2.550478e-01 -2.994802e-01 2.550769e-01 -2.994324e-01 -9.587926e-02 -5.676725e-01
2.899100 -1.004708e-01 -5.646820e-01 2.558704e-01 -3.009881e-01 2.559010e-01 -3.009396e-01 -9.878497e-02 -5.657901e-01
2.900800 -1.033652e-01 -5.627637e-01 2.566757e-01 -3.025076e-01 2.567079e-01 -3.024583e-01 -1.016792e-01 -5.638833e-01
2.902500 -1.062479e-01 -5.608209e-01 2.574635e-01 -3.040384e-01 2.574972e-01 -3.039884e-01 -1.045617e-01 -5.619522e-01
2.904200 -1.091186e-01 -5.588539e-01 2.582336e-01 -3.055803e-01 2.582689e-01 -3.055296e-01 -1.074323e-01 -5.599968e-01
2.905900 -1.119770e-01 -5.568627e-01 2.589859e-01 -3.071330e-01 2.590227e-01 -3.070818e-01 -1.102909e-01 -5.580171e-01
2.907600 -1.148231e-01 -5.548474e-01 2.597200e-01 -3.086962e-01 2.597585e-01 -3.086446e-01 -1.131371e-01 -5.560133e-01
2.909300 -1.176565e-01 -5.528079e-01 2.604360e-01 -3.102698e-01 2.604761e-01 -3.102177e-01 -1.159708e-01 -5.539855e-01
2.911000 -1.204771e-01 -5.507445e-01 2.611336e-01 -3.118535e-01 2.611753e-01 -3.118010e-01 -1.187917e-01 -5.519336e-01
2.912700 -1.232847e-01 -5.486571e-01 2.618126e-01 -3.134469e-01 2.618560e-01 -3.133941e-01 -1.215997e-01 -5.498578e-01
2.914400 -1.260790e-01 -5.465459e-01 2.624730e-01 -3.150499e-01 2.625180e-01 -3.149969e-01 -1.243946e-01 -5.477582e-01
2.916100 -1.288598e-01 -5.444109e-01 2.631144e-01 -3.166621e-01 2.631611e-01 -3.166090e-01 -1.271761e-01 -5.456347e-01
2.917800 -1.316271e-01 -5.422522e-01 2.637369e-01 -3.182833e-01 2.637852e-01 -3.182301e-01 -1.299441e-01 -5.434876e-01
2.919500 -1.343804e-01 -5.400699e-01 2.643402e-01 -3.199133e-01 2.643901e-01 -3.198600e-01 -1.326983e-01 -5.413169e-01
2.921200 -1.371198e-01 -5.378640e-01 2.649242e-01 -3.215517e-01 2.649757e-01 -3.214985e-01 -1.354386e-01 -5.391226e-01
2.922900 -1.398448e-01 -5.356347e-01 2.654887e-01 -3.231982e-01 2.655419e-01 -3.231451e-01 -1.381647e-01 -5.369048e-01
2.924600 -1.425554e-01 -5.333820e-01 2.660336e-01 -3.248526e-01 2.660884e-01 -3.247997e-01 -1.408764e-01 -5.346637e-01
2.926300 -1.452514e-01 -5.311060e-01 2.665588e-01 -3.265145e-01 2.666152e-01 -3.264619e-01 -1.435737e-01 -5.323992e-01
2.928000 -1.479326e-01 -5.288068e-01 2.670642e-01 -3.281838e-01 2.671221e-01 -3.281314e-01 -1.462561e-01 -5.301115e-01
2.929700 -1.505986e-01 -5.264844e-01 2.675496e-01 -3.298600e-01 2.676091e-01 -3.298080e-01 -1.489236e-01 -5.278007e-01
2.931400 -1.532495e-01 -5.241391e-01 2.680148e-01 -3.315428e-01 2.680759e-01 -3.314913e-01 -1.515760e-01 -5.254669e-01
2.933100 -1.558849e-01 -5.217707e-01 2.684599e-01 -3.332321e-01 2.685225e-01 -3.331811e-01 -1.542131e-01 -5.231100e-01
2.934800 -1.585047e-01 -5.193795e-01 2.688846e-01 -3.349274e-01 2.689487e-01 -3.348769e-01 -1.568346e-01 -5.207303e-01
2.936500 -1.611087e-01 -5.169655e-01 2.692889e-01 -3.366284e-01 2.693544e-01 -3.365786e-01 -1.594403e-01 -5.183278e-01
2.938200 -1.636966e-01 -5.145288e-01 2.696726e-01 -3.383349e-01 2.697395e-01 -3.382858e-01 -1.620302e-01 -5.159026e-01
2.939900 -1.662684e-01 -5.120695e-01 2.700357e-01 -3.400465e-01 2.701040e-01 -3.399982e-01 -1.646040e-01 -5.134547e-01
2.941600 -1.688237e-01 -5.095876e-01 2.703781e-01 -3.417629e-01 2.704477e-01 -3.417154e-01 -1.671614e-01 -5.109844e-01
2.943300 -1.713625e-01 -5.070834e-01 2.706996e-01 -3.434837e-01 2.707705e-01 -3.434371e-01 -1.697024e-01 -5.084915e-01
2.945000 -1.738845e-01 -5.045567e-01 2.710002e-01 -3.452087e-01 2.710724e-01 -3.451630e-01 -1.722266e-01 -5.059763e-01
2.946700 -1.763895e-01 -5.020079e-01 2.712798e-01 -3.469374e-01 2.713532e-01 -3.468928e-01 -1.747340e-01 -5.034389e-01
2.948400 -1.788774e-01 -4.994368e-01 2.715383e-01 -3.486697e-01 2.716129e-01 -3.486261e-01 -1.772244e-01 -5.008792e-01
2.950100 -1.813479e-01 -4.968437e-01 2.717757e-01 -3.504050e-01 2.718514e-01 -3.503626e-01 -1.796975e-01 -4.982975e-01
2.951800 -1.838009e-01 -4.942286e-01 2.719919e-01 -3.521432e-01 2.720687e-01 -3.521020e-01 -1.821531e-01 -4.956938e-01
2.953500 -1.862361e-01 -4.915916e-01 2.721868e-01 -3.538838e-01 2.722646e-01 -3.538438e-01 -1.845911e-01 -4.930682e-01
2.955200 -1.886535e-01 -4.889328e-01 2.723604e-01 -3.556265e-01 2.724392e-01 -3.555878e-01 -1.870113e-01 -4.904207e-01
2.956900 -1.910528e-01 -4.862523e-01 2.725127e-01 -3.573710e-01 2.725924e-01 -3.573335e-01 -1.894135e-01 -4.877515e-01
2.958600 -1.934337e-01 -4.835501e-01 2.726435e-01 -3.591168e-01 2.727240e-01 -3.590807e-01 -1.917975e-01 -4.850607e-01
2.960300 -1.957962e-01 -4.808264e-01 2.727529e-01 -3.608637e-01 2.728342e-01 -3.608290e-01 -1.941631e-01 -4.823483e-01
2.962000 -1.981401e-01 -4.780813e-01 2.728408e-01 -3.626112e-01 2.729228e-01 -3.625780e-01 -1.965102e-01 -4.796145e-01
2.963700 -2.004651e-01 -4.753149e-01 2.729072e-01 -3.643591e-01 2.729899e-01 -3.643274e-01 -1.988385e-01 -4.768593e-01
2.965400 -2.027710e-01 -4.725271e-01 2.729521e-01 -3.661070e-01 2.730354e-01 -3.660767e-01 -2.011479e-01 -4.740828e-01
2.967100 -2.050578e-01 -4.697182e-01 2.729755e-01 -3.678544e-01 2.730592e-01 -3.678257e-01 -2.034381e-01 -4.712852e-01
2.968800 -2.073251e-01 -4.668883e-01 2.729773e-01 -3.696010e-01 2.730615e-01 -3.695740e-01 -2.057090e-01 -4.684664e-01
2.970500 -2.095729e-01 -4.640373e-01 2.729576e-01 -3.713465e-01 2.730422e-01 -3.713211e-01 -2.079605e-01 -4.656267e-01
2.972200 -2.118009e-01 -4.611655e-01 2.729164e-01 -3.730905e-01 2.730012e-01 -3.730667e-01 -2.101922e-01 -4.627660e-01
2.973900 -2.140089e-01 -4.582728e-01 2.728536e-01 -3.748326e-01 2.729387e-01 -3.748104e-01 -2.124041e-01 -4.598846e-01
2.975600 -2.161967e-01 -4.553595e-01 2.727694e-01 -3.765724e-01 2.728546e-01 -3.765519e-01 -2.145959e-01 -4.569824e-01
2.977300 -2.183642e-01 -4.524255e-01 2.726636e-01 -3.783096e-01 2.727489e-01 -3.782907e-01 -2.167675e-01 -4.540596e-01
2.979000 -2.205112e-01 -4.494710e-01 2.725365e-01 -3.800437e-01 2.726218e-01 -3.800266e-01 -2.189186e-01 -4.511162e-01
2.980700 -2.226375e-01 -4.464960e-01 2.723879e-01 -3.817744e-01 2.724731e-01 -3.817590e-01 -2.210492e-01 -4.481524e-01
2.982400 -2.247428e-01 -4.435008e-01 2.722180e-01 -3.835013e-01 2.723031e-01 -3.834876e-01 -2.231589e-01 -4.451682e-01
2.984100 -2.268271e-01 -4.404852e-01 2.720269e-01 -3.852241e-01 2.721116e-01 -3.852120e-01 -2.252475e-01 -4.421637e-01
2.985800 -2.288900e-01 -4.374495e-01 2.718145e-01 -3.869422e-01 2.718989e-01 -3.869319e-01 -2.273150e-01 -4.391391e-01
2.987500 -2.309314e-01 -4.343937e-01 2.715809e-01 -3.886554e-01 2.716650e-01 -3.886468e-01 -2.293611e-01 -4.360943e-01
2.989200 -2.329512e-01 -4.313179e-01 2.713262e-01 -3.903632e-01 2.714098e-01 -3.903563e-01 -2.313856e-01 -4.330296e-01
2.990900 -2.349491e-01 -4.282222e-01 2.710506e-01 -3.920653e-01 2.711336e-01 -3.920600e-01 -2.333884e-01 -4.299449e-01
2.992600 -2.369249e-01 -4.251067e-01 2.707541e-01 -3.937612e-01 2.708365e-01 -3.937576e-01 -2.353691e-01 -4.268404e-01
2.994300 -2.388784e-01 -4.219715e-01 2.704368e-01 -3.954507e-01 2.705185e-01 -3.954487e-01 -2.373277e-01 -4.237162e-01
2.996000 -2.408095e-01 -4.188167e-01 2.700987e-01 -3.971331e-01 2.701797e-01 -3.971328e-01 -2.392639e-01 -4.205724e-01
2.997700 -2.427179e-01 -4.156423e-01 2.697402e-01 -3.988083e-01 2.698202e-01 -3.988095e-01 -2.411776e-01 -4.174089e-01
2.999400 -2.446034e-01 -4.124485e-01 2.693612e-01 -4.004757e-01 2.694403e-01 -4.004785e-01 -2.430684e-01 -4.142260e-01
3.001100 -2.464658e-01 -4.092353e-01 2.689618e-01 -4.021350e-01 2.690400e-01 -4.021394e-01 -2.449363e-01 -4.110238e-01
3.002800 -2.483049e-01 -4.060029e-01 2.685424e-01 -4.037858e-01 2.686194e-01 -4.037916e-01 -2.467810e-01 -4.078022e-01
3.004500 -2.501205e-01 -4.027512e-01 2.681029e-01 -4.054276e-01 2.681788e-01 -4.054350e-01 -2.486024e-01 -4.045615e-01
3.006200 -2.519124e-01 -3.994805e-01 2.676435e-01 -4.070602e-01 2.677183e-01 -4.070689e-01 -2.504001e-01 -4.013016e-01
3.007900 -2.536804e-01 -3.961908e-01 2.671645e-01 -4.086830e-01 2.672380e-01 -4.086932e-01 -2.521740e-01 -3.980227e-01
3.009600 -2.554242e-01 -3.928821e-01 2.666660e-01 -4.102958e-01 2.667382e-01 -4.103072e-01 -2.539239e-01 -3.947249e-01
3.011300 -2.571437e-01 -3.895547e-01 2.661482e-01 -4.118980e-01 2.662190e-01 -4.119107e-01 -2.556495e-01 -3.914083e-01
3.013000 -2.588386e-01 -3.862085e-01 2.656113e-01 -4.134893e-01 2.656806e-01 -4.135033e-01 -2.573507e-01 -3.880729e-01
3.014700 -2.605086e-01 -3.828437e-01 2.650555e-01 -4.150694e-01 2.651233e-01 -4.150845e-01 -2.590271e-01 -3.847188e-01
3.016400 -2.621537e-01 -3.794603e-01 2.644811e-01 -4.166377e-01 2.645473e-01 -4.166540e-01 -2.606787e-01 -3.813462e-01
3.018100 -2.637735e-01 -3.760585e-01 2.638881e-01 -4.181940e-01 2.639527e-01 -4.182113e-01 -2.623052e-01 -3.779551e-01
3.019800 -2.653678e-01 -3.726383e-01 2.632770e-01 -4.197378e-01 2.633399e-01 -4.197561e-01 -2.639062e-01 -3.745456e-01
3.021500 -2.669364e-01 -3.691999e-01 2.626479e-01 -4.212687e-01 2.627091e-01 -4.212879e-01 -2.654817e-01 -3.711179e-01
3.023200 -2.684790e-01 -3.657433e-01 2.620011e-01 -4.227864e-01 2.620605e-01 -4.228064e-01 -2.670313e-01 -3.676719e-01
3.024900 -2.699954e-01 -3.622686e-01 2.613368e-01 -4.242904e-01 2.613945e-01 -4.243112e-01 -2.685549e-01 -3.642079e-01
3.026600 -2.714853e-01 -3.587760e-01 2.606554e-01 -4.257804e-01 2.607113e-01 -4.258020e-01 -2.700521e-01 -3.607258e-01
3.028300 -2.729485e-01 -3.552654e-01 2.599571e-01 -4.272560e-01 2.600112e-01 -4.272782e-01 -2.715228e-01 -3.572258e-01
3.030000 -2.743848e-01 -3.517371e-01 2.592422e-01 -4.287169e-01 2.592944e-01 -4.287396e-01 -2.729666e-01 -3.537081e-01
3.031700 -2.757938e-01 -3.481911e-01 2.585111e-01 -4.301626e-01 2.585614e-01 -4.301858e-01 -2.743833e-01 -3.501726e-01
3.033400 -2.771754e-01 -3.446276e-01 2.577640e-01 -4.315927e-01 2.578125e-01 -4.316164e-01 -2.757728e-01 -3.466195e-01
3.035100 -2.785292e-01 -3.410466e-01 2.570014e-01 -4.330070e-01 2.570479e-01 -4.330310e-01 -2.771346e-01 -3.430489e-01
3.036800 -2.798550e-01 -3.374482e-01 2.562234e-01 -4.344050e-01 2.562680e-01 -4.344293e-01 -2.784685e-01 -3.394609e-01
3.038500 -2.811525e-01 -3.338326e-01 2.554306e-01 -4.357864e-01 2.554732e-01 -4.358108e-01 -2.797743e-01 -3.358557e-01
3.040200 -2.824215e-01 -3.301998e-01 2.546232e-01 -4.371509e-01 2.546639e-01 -4.371754e-01 -2.810517e-01 -3.322332e-01
3.041900 -2.836616e-01 -3.265501e-01 2.538016e-01 -4.384980e-01 2.538404e-01 -4.385225e-01 -2.823004e-01 -3.285937e-01
3.043600 -2.848725e-01 -3.228834e-01 2.529662e-01 -4.398275e-01 2.530032e-01 -4.398519e-01 -2.835201e-01 -3.249372e-01
3.045300 -2.860540e-01 -3.191999e-01 2.521175e-01 -4.411389e-01 2.521525e-01 -4.411632e-01 -2.847105e-01 -3.212639e-01
3.047000 -2.872058e-01 -3.154998e-01 2.512558e-01 -4.424321e-01 2.512889e-01 -4.424561e-01 -2.858713e-01 -3.175739e-01
3.048700 -2.883275e-01 -3.117832e-01 2.503815e-01 -4.437065e-01 2.504128e-01 -4.437303e-01 -2.870023e-01 -3.138673e-01
3.050400 -2.894189e-01 -3.080501e-01 2.494951e-01 -4.449620e-01 2.495246e-01 -4.449854e-01 -2.881030e-01 -3.101442e-01
3.052100 -2.904797e-01 -3.043008e-01 2.485970e-01 -4.461982e-01 2.486247e-01 -4.462212e-01 -2.891733e-01 -3.064048e-01
3.053800 -2.915094e-01 -3.005353e-01 2.476878e-01 -4.474148e-01 2.477137e-01 -4.474373e-01 -2.902128e-01 -3.026493e-01
3.055500 -2.925078e-01 -2.967538e-01 2.467677e-01 -4.486115e-01 2.467920e-01 -4.486334e-01 -2.912211e-01 -2.988776e-01
3.057200 -2.934746e-01 -2.929566e-01 2.458374e-01 -4.497881e-01 2.458600e-01 -4.498093e-01 -2.921980e-01 -2.950900e-01
3.058900 -2.944095e-01 -2.891436e-01 2.448973e-01 -4.509441e-01 2.449183e-01 -4.509646e-01 -2.931430e-01 -2.912867e-01
3.060600 -2.953120e-01 -2.853151e-01 2.439480e-01 -4.520795e-01 2.439673e-01 -4.520992e-01 -2.940559e-01 -2.874678e-01
3.062300 -2.961819e-01 -2.814712e-01 2.429898e-01 -4.531938e-01 2.430077e-01 -4.532127e-01 -2.949364e-01 -2.836334e-01
3.064000 -2.970187e-01 -2.776121e-01 2.420235e-01 -4.542869e-01 2.420399e-01 -4.543049e-01 -2.957840e-01 -2.797837e-01
3.065700 -2.978222e-01 -2.737380e-01 2.410494e-01 -4.553585e-01 2.410644e-01 -4.553756e-01 -2.965984e-01 -2.759189e-01
3.067400 -2.985919e-01 -2.698491e-01 2.400682e-01 -4.564084e-01 2.400819e-01 -4.564245e-01 -2.973793e-01 -2.720391e-01
3.069100 -2.993276e-01 -2.659455e-01 2.390804e-01 -4.574364e-01 2.390928e-01 -4.574514e-01 -2.981262e-01 -2.681446e-01
3.070800 -3.000287e-01 -2.620274e-01 2.380865e-01 -4.584423e-01 2.380978e-01 -4.584561e-01 -2.988388e-01 -2.642356e-01
3.072500 -3.006950e-01 -2.580951e-01 2.370872e-01 -4.594258e-01 2.370974e-01 -4.594385e-01 -2.995168e-01 -2.603122e-01
3.074200 -3.013260e-01 -2.541488e-01 2.360831e-01 -4.603867e-01 2.360923e-01 -4.603984e-01 -3.001597e-01 -2.563746e-01
3.075900 -3.019214e-01 -2.501886e-01 2.350747e-01 -4.613250e-01 2.350829e-01 -4.613355e-01 -3.007671e-01 -2.524230e-01
3.077600 -3.024808e-01 -2.462148e-01 2.340627e-01 -4.622405e-01 2.340700e-01 -4.622498e-01 -3.013387e-01 -2.484578e-01
3.079300 -3.030037e-01 -2.422277e-01 2.330476e-01 -4.631330e-01 2.330542e-01 -4.631410e-01 -3.018740e-01 -2.444790e-01
3.081000 -3.034898e-01 -2.382275e-01 2.320302e-01 -4.640024e-01 2.320361e-01 -4.640092e-01 -3.023726e-01 -2.404870e-01
3.082700 -3.039385e-01 -2.342144e-01 2.310110e-01 -4.648486e-01 2.310163e-01 -4.648542e-01 -3.028341e-01 -2.364820e-01
3.084400 -3.043496e-01 -2.301887e-01 2.299907e-01 -4.656715e-01 2.299956e-01 -4.656759e-01 -3.032582e-01 -2.324642e-01
3.086100 -3.047226e-01 -2.261507e-01 2.289700e-01 -4.664710e-01 2.289745e-01 -4.664742e-01 -3.036443e-01 -2.284340e-01
3.087800 -3.050570e-01 -2.221007e-01 2.279495e-01 -4.672471e-01 2.279537e-01 -4.672491e-01 -3.039920e-01 -2.243916e-01
3.089500 -3.053524e-01 -2.180390e-01 2.269300e-01 -4.679998e-01 2.269339e-01 -4.680005e-01 -3.043009e-01 -2.203373e-01
3.091200 -3.056084e-01 -2.139658e-01 2.259121e-01 -4.687289e-01 2.259158e-01 -4.687284e-01 -3.045706e-01 -2.162714e-01
3.092900 -3.058245e-01 -2.098816e-01 2.248964e-01 -4.694345e-01 2.249001e-01 -4.694329e-01 -3.048006e-01 -2.121943e-01
3.094600 -3.060003e-01 -2.057867e-01 2.238837e-01 -4.701167e-01 2.238875e-01 -4.701140e-01 -3.049904e-01 -2.081062e-01
3.096300 -3.061353e-01 -2.016813e-01 2.228748e-01 -4.707754e-01 2.228786e-01 -4.707716e-01 -3.051396e-01 -2.040075e-01
3.098000 -3.062291e-01 -1.975660e-01 2.218702e-01 -4.714107e-01 2.218743e-01 -4.714059e-01 -3.052477e-01 -1.998986e-01
3.099700 -3.062812e-01 -1.934410e-01 2.208708e-01 -4.720226e-01 2.208751e-01 -4.720169e-01 -3.053144e-01 -1.957799e-01
3.101400 -3.062911e-01 -1.893067e-01 2.198773e-01 -4.726114e-01 2.198819e-01 -4.726047e-01 -3.053390e-01 -1.916516e-01
3.103100 -3.062584e-01 -1.851636e-01 2.188903e-01 -4.731771e-01 2.188954e-01 -4.731696e-01 -3.053211e-01 -1.875144e-01
3.104800 -3.061826e-01 -1.810122e-01 2.179106e-01 -4.737198e-01 2.179162e-01 -4.737115e-01 -3.052603e-01 -1.833685e-01
3.106500 -3.060632e-01 -1.768527e-01 2.169390e-01 -4.742397e-01 2.169452e-01 -4.742307e-01 -3.051561e-01 -1.792143e-01
3.108200 -3.058998e-01 -1.726858e-01 2.159762e-01 -4.747370e-01 2.159830e-01 -4.747274e-01 -3.050080e-01 -1.750525e-01
3.109900 -3.056919e-01 -1.685118e-01 2.150229e-01 -4.752120e-01 2.150304e-01 -4.752017e-01 -3.048155e-01 -1.708833e-01
3.111600 -3.054390e-01 -1.643313e-01 2.140799e-01 -4.756647e-01 2.140881e-01 -4.756540e-01 -3.045781e-01 -1.667074e-01
3.113300 -3.051406e-01 -1.601448e-01 2.131478e-01 -4.760956e-01 2.131568e-01 -4.760845e-01 -3.042954e-01 -1.625252e-01
3.115000 -3.047962e-01 -1.559528e-01 2.122275e-01 -4.765048e-01 2.122373e-01 -4.764935e-01 -3.039668e-01 -1.583373e-01
3.116700 -3.044055e-01 -1.517560e-01 2.113197e-01 -4.768928e-01 2.113304e-01 -4.768812e-01 -3.035920e-01 -1.541441e-01
3.118400 -3.039678e-01 -1.475547e-01 2.104251e-01 -4.772598e-01 2.104367e-01 -4.772481e-01 -3.031704e-01 -1.499463e-01
3.120100 -3.034828e-01 -1.433497e-01 2.095445e-01 -4.776062e-01 2.095569e-01 -4.775945e-01 -3.027015e-01 -1.457445e-01
3.121800 -3.029500e-01 -1.391416e-01 2.086785e-01 -4.779324e-01 2.086918e-01 -4.779207e-01 -3.021848e-01 -1.415392e-01
3.123500 -3.023688e-01 -1.349309e-01 2.078279e-01 -4.782387e-01 2.078422e-01 -4.782273e-01 -3.016200e-01 -1.373312e-01
3.125200 -3.017389e-01 -1.307185e-01 2.069935e-01 -4.785258e-01 2.070086e-01 -4.785146e-01 -3.010064e-01 -1.331209e-01
3.126900 -3.010598e-01 -1.265048e-01 2.061758e-01 -4.787939e-01 2.061919e-01 -4.787831e-01 -3.003437e-01 -1.289092e-01
3.128600 -3.003311e-01 -1.222907e-01 2.053757e-01 -4.790436e-01 2.053927e-01 -4.790333e-01 -2.996314e-01 -1.246968e-01
3.130300 -2.995523e-01 -1.180768e-01 2.045938e-01 -4.792755e-01 2.046117e-01 -4.792658e-01 -2.988690e-01 -1.204842e-01
3.132000 -2.987229e-01 -1.138639e-01 2.038308e-01 -4.794900e-01 2.038495e-01 -4.794810e-01 -2.980562e-01 -1.162723e-01
3.133700 -2.978426e-01 -1.096528e-01 2.030873e-01 -4.796878e-01 2.031069e-01 -4.796795e-01 -2.971924e-01 -1.120619e-01
3.135400 -2.969109e-01 -1.054443e-01 2.023641e-01 -4.798694e-01 2.023844e-01 -4.798620e-01 -2.962772e-01 -1.078537e-01
3.137100 -2.959274e-01 -1.012392e-01 2.016618e-01 -4.800355e-01 2.016827e-01 -4.800291e-01 -2.953103e-01 -1.036486e-01
3.138800 -2.948918e-01 -9.703824e-02 2.009809e-01 -4.801867e-01 2.010025e-01 -4.801813e-01 -2.942911e-01 -9.944732e-02
3.140500 -2.938037e-01 -9.284239e-02 2.003221e-01 -4.803238e-01 2.003443e-01 -4.803195e-01 -2.932194e-01 -9.525083e-02
3.142200 -2.926626e-01 -8.865252e-02 1.996860e-01 -4.804474e-01 1.997088e-01 -4.804442e-01 -2.920947e-01 -9.105997e-02
3.143900 -2.914683e-01 -8.446954e-02 1.990732e-01 -4.805582e-01 1.990964e-01 -4.805563e-01 -2.909167e-01 -8.687567e-02
3.145600 -2.902204e-01 -8.029437e-02 1.984843e-01 -4.806571e-01 1.985078e-01 -4.806564e-01 -2.896851e-01 -8.269886e-02
3.147300 -2.889186e-01 -7.612799e-02 1.979197e-01 -4.807447e-01 1.979435e-01 -4.807454e-01 -2.883994e-01 -7.853051e-02
3.149000 -2.875625e-01 -7.197136e-02 1.973799e-01 -4.808220e-01 1.974039e-01 -4.808240e-01 -2.870594e-01 -7.437159e-02
3.150700 -2.861520e-01 -6.782551e-02 1.968655e-01 -4.808897e-01 1.968896e-01 -4.808930e-01 -2.856649e-01 -7.022312e-02
3.152400 -2.846868e-01 -6.369146e-02 1.963770e-01 -4.809487e-01 1.964010e-01 -4.809534e-01 -2.842154e-01 -6.608614e-02
3.154100 -2.831666e-01 -5.957026e-02 1.959147e-01 -4.809998e-01 1.959386e-01 -4.810060e-01 -2.827108e-01 -6.196170e-02
3.155800 -2.815912e-01 -5.546299e-02 1.954790e-01 -4.810441e-01 1.955027e-01 -4.810516e-01 -2.811509e-01 -5.785089e-02
3.157500 -2.799604e-01 -5.137075e-02 1.950705e-01 -4.810823e-01 1.950938e-01 -4.810912e-01 -2.795354e-01 -5.375481e-02
3.159200 -2.782741e-01 -4.729466e-02 1.946893e-01 -4.811154e-01 1.947122e-01 -4.811258e-01 -2.778642e-01 -4.967459e-02
3.160900 -2.765321e-01 -4.323587e-02 1.943359e-01 -4.811445e-01 1.943583e-01 -4.811561e-01 -2.761371e-01 -4.561138e-02
3.162600 -2.747343e-01 -3.919552e-02 1.940105e-01 -4.811704e-01 1.940322e-01 -4.811833e-01 -2.743540e-01 -4.156635e-02
3.164300 -2.728808e-01 -3.517481e-02 1.937134e-01 -4.811941e-01 1.937344e-01 -4.812082e-01 -2.725148e-01 -3.754071e-02
3.166000 -2.709713e-01 -3.117494e-02 1.934448e-01 -4.812168e-01 1.934649e-01 -4.812320e-01 -2.706195e-01 -3.353565e-02
3.167700 -2.690059e-01 -2.719713e-02 1.932048e-01 -4.812393e-01 1.932241e-01 -4.812555e-01 -2.686681e-01 -2.955242e-02
3.169400 -2.669847e-01 -2.324261e-02 1.929938e-01 -4.812627e-01 1.930120e-01 -4.812799e-01 -2.666605e-01 -2.559226e-02
3.171100 -2.649077e-01 -1.931265e-02 1.928117e-01 -4.812881e-01 1.928289e-01 -4.813061e-01 -2.645968e-01 -2.165644e-02
3.172800 -2.627750e-01 -1.540850e-02 1.926587e-01 -4.813165e-01 1.926747e-01 -4.813352e-01 -2.624771e-01 -1.774626e-02
3.174500 -2.605867e-01 -1.153145e-02 1.925349e-01 -4.813491e-01 1.925496e-01 -4.813683e-01 -2.603016e-01 -1.386300e-02
3.176200 -2.583430e-01 -7.682798e-03 1.924401e-01 -4.813868e-01 1.924536e-01 -4.814063e-01 -2.580703e-01 -1.000798e-02
3.177900 -2.560441e-01 -3.863854e-03 1.923744e-01 -4.814307e-01 1.923867e-01 -4.814505e-01 -2.557835e-01 -6.182536e-03
3.179600 -2.536903e-01 -7.593385e-05 1.923377e-01 -4.814820e-01 1.923487e-01 -4.815018e-01 -2.534414e-01 -2.387995e-03
3.181300 -2.512818e-01 3.679636e-03 1.923300e-01 -4.815417e-01 1.923396e-01 -4.815614e-01 -2.510443e-01 1.374293e-03
3.183000 -2.488191e-01 7.401522e-03 1.923510e-01 -4.816109e-01 1.923593e-01 -4.816302e-01 -2.485927e-01 5.102973e-03
3.184700 -2.463025e-01 1.108838e-02 1.924006e-01 -4.816907e-01 1.924076e-01 -4.817095e-01 -2.460867e-01 8.796685e-03
3.186400 -2.437325e-01 1.473888e-02 1.924785e-01 -4.817822e-01 1.924843e-01 -4.818002e-01 -2.435270e-01 1.245406e-02
3.188100 -2.411094e-01 1.835167e-02 1.925845e-01 -4.818864e-01 1.925892e-01 -4.819035e-01 -2.409138e-01 1.607374e-02
3.189800 -2.384339e-01 2.192540e-02 1.927183e-01 -4.820045e-01 1.927218e-01 -4.820204e-01 -2.382479e-01 1.965434e-02
3.191500 -2.357065e-01 2.545873e-02 1.928794e-01 -4.821375e-01 1.928820e-01 -4.821519e-01 -2.355297e-01 2.319451e-02
3.193200 -2.329278e-01 2.895032e-02 1.930676e-01 -4.822865e-01 1.930693e-01 -4.822992e-01 -2.327598e-01 2.669287e-02
3.194900 -2.300986e-01 3.239884e-02 1.932824e-01 -4.824524e-01 1.932834e-01 -4.824633e-01 -2.299390e-01 3.014808e-02
3.196600 -2.272194e-01 3.580297e-02 1.935232e-01 -4.826365e-01 1.935237e-01 -4.826451e-01 -2.270679e-01 3.355877e-02
3.198300 -2.242911e-01 3.916139e-02 1.937897e-01 -4.828395e-01 1.937899e-01 -4.828458e-01 -2.241474e-01 3.692361e-02
3.200000 -2.213146e-01 4.247279e-02 1.940812e-01 -4.830627e-01 1.940813e-01 -4.830663e-01 -2.211781e-01 4.024128e-02
